*Heading
 Gregoire D=100 a/D=0.2 3PB, CDM UMAT
** Job name: Gregoire_3PB Model name: Gregoire_3PB
** Generated by: Abaqus/CAE 2024
*Preprint, echo=NO, model=NO, history=NO, contact=NO
**
** PARTS
**
*Part, name=Beam2D
*Node
      1,         150.,           0.
      2,         150.,         100.
      3,           0.,         100.
      4,           0.,           0.
      5,         200.,         100.
      6,         200.,           0.
      7,         350.,           0.
      8,         350.,         100.
      9,       173.75,           0.
     10,       173.75,          20.
     11,       176.25,          20.
     12,       176.25,           0.
     13,         150.,        3.125
     14,         150.,         6.25
     15,         150.,        9.375
     16,         150.,         12.5
     17,         150.,       15.625
     18,         150.,        18.75
     19,         150.,       21.875
     20,         150.,          25.
     21,         150.,       28.125
     22,         150.,        31.25
     23,         150.,       34.375
     24,         150.,         37.5
     25,         150.,       40.625
     26,         150.,        43.75
     27,         150.,       46.875
     28,         150.,          50.
     29,         150.,       53.125
     30,         150.,        56.25
     31,         150.,       59.375
     32,         150.,         62.5
     33,         150.,       65.625
     34,         150.,        68.75
     35,         150.,       71.875
     36,         150.,          75.
     37,         150.,       78.125
     38,         150.,        81.25
     39,         150.,       84.375
     40,         150.,         87.5
     41,         150.,       90.625
     42,         150.,        93.75
     43,         150.,       96.875
     44,        137.5,         100.
     45,         125.,         100.
     46,        112.5,         100.
     47,         100.,         100.
     48,         87.5,         100.
     49,          75.,         100.
     50,         62.5,         100.
     51,          50.,         100.
     52,         37.5,         100.
     53,          25.,         100.
     54,         12.5,         100.
     55,           0.,       96.875
     56,           0.,        93.75
     57,           0.,       90.625
     58,           0.,         87.5
     59,           0.,       84.375
     60,           0.,        81.25
     61,           0.,       78.125
     62,           0.,          75.
     63,           0.,       71.875
     64,           0.,        68.75
     65,           0.,       65.625
     66,           0.,         62.5
     67,           0.,       59.375
     68,           0.,        56.25
     69,           0.,       53.125
     70,           0.,          50.
     71,           0.,       46.875
     72,           0.,        43.75
     73,           0.,       40.625
     74,           0.,         37.5
     75,           0.,       34.375
     76,           0.,        31.25
     77,           0.,       28.125
     78,           0.,          25.
     79,           0.,       21.875
     80,           0.,        18.75
     81,           0.,       15.625
     82,           0.,         12.5
     83,           0.,        9.375
     84,           0.,         6.25
     85,           0.,        3.125
     86,         12.5,           0.
     87,          25.,           0.
     88,         37.5,           0.
     89,          50.,           0.
     90,         62.5,           0.
     91,          75.,           0.
     92,         87.5,           0.
     93,         100.,           0.
     94,        112.5,           0.
     95,         125.,           0.
     96,        137.5,           0.
     97,         200.,       96.875
     98,         200.,        93.75
     99,         200.,       90.625
    100,         200.,         87.5
    101,         200.,       84.375
    102,         200.,        81.25
    103,         200.,       78.125
    104,         200.,          75.
    105,         200.,       71.875
    106,         200.,        68.75
    107,         200.,       65.625
    108,         200.,         62.5
    109,         200.,       59.375
    110,         200.,        56.25
    111,         200.,       53.125
    112,         200.,          50.
    113,         200.,       46.875
    114,         200.,        43.75
    115,         200.,       40.625
    116,         200.,         37.5
    117,         200.,       34.375
    118,         200.,        31.25
    119,         200.,       28.125
    120,         200.,          25.
    121,         200.,       21.875
    122,         200.,        18.75
    123,         200.,       15.625
    124,         200.,         12.5
    125,         200.,        9.375
    126,         200.,         6.25
    127,         200.,        3.125
    128,        212.5,           0.
    129,         225.,           0.
    130,        237.5,           0.
    131,         250.,           0.
    132,        262.5,           0.
    133,         275.,           0.
    134,        287.5,           0.
    135,         300.,           0.
    136,        312.5,           0.
    137,         325.,           0.
    138,        337.5,           0.
    139,         350.,        3.125
    140,         350.,         6.25
    141,         350.,        9.375
    142,         350.,         12.5
    143,         350.,       15.625
    144,         350.,        18.75
    145,         350.,       21.875
    146,         350.,          25.
    147,         350.,       28.125
    148,         350.,        31.25
    149,         350.,       34.375
    150,         350.,         37.5
    151,         350.,       40.625
    152,         350.,        43.75
    153,         350.,       46.875
    154,         350.,          50.
    155,         350.,       53.125
    156,         350.,        56.25
    157,         350.,       59.375
    158,         350.,         62.5
    159,         350.,       65.625
    160,         350.,        68.75
    161,         350.,       71.875
    162,         350.,          75.
    163,         350.,       78.125
    164,         350.,        81.25
    165,         350.,       84.375
    166,         350.,         87.5
    167,         350.,       90.625
    168,         350.,        93.75
    169,         350.,       96.875
    170,        337.5,         100.
    171,         325.,         100.
    172,        312.5,         100.
    173,         300.,         100.
    174,        287.5,         100.
    175,         275.,         100.
    176,        262.5,         100.
    177,         250.,         100.
    178,        237.5,         100.
    179,         225.,         100.
    180,        212.5,         100.
    181,      196.875,         100.
    182,       193.75,         100.
    183,      190.625,         100.
    184,        187.5,         100.
    185,      184.375,         100.
    186,       181.25,         100.
    187,      178.125,         100.
    188,         175.,         100.
    189,      171.875,         100.
    190,       168.75,         100.
    191,      165.625,         100.
    192,        162.5,         100.
    193,      159.375,         100.
    194,       156.25,         100.
    195,      153.125,         100.
    196,    152.96875,           0.
    197,     155.9375,           0.
    198,    158.90625,           0.
    199,      161.875,           0.
    200,    164.84375,           0.
    201,     167.8125,           0.
    202,    170.78125,           0.
    203,       173.75,   3.33333325
    204,       173.75,   6.66666651
    205,       173.75,          10.
    206,       173.75,    13.333333
    207,       173.75,    16.666666
    208,       176.25,    16.666666
    209,       176.25,    13.333333
    210,       176.25,          10.
    211,       176.25,   6.66666651
    212,       176.25,   3.33333325
    213,    179.21875,           0.
    214,     182.1875,           0.
    215,    185.15625,           0.
    216,      188.125,           0.
    217,    191.09375,           0.
    218,     194.0625,           0.
    219,    197.03125,           0.
    220,        137.5,        3.125
    221,        137.5,         6.25
    222,        137.5,        9.375
    223,        137.5,         12.5
    224,        137.5,       15.625
    225,        137.5,        18.75
    226,        137.5,       21.875
    227,        137.5,          25.
    228,        137.5,       28.125
    229,        137.5,        31.25
    230,        137.5,       34.375
    231,        137.5,         37.5
    232,        137.5,       40.625
    233,        137.5,        43.75
    234,        137.5,       46.875
    235,        137.5,          50.
    236,        137.5,       53.125
    237,        137.5,        56.25
    238,        137.5,       59.375
    239,        137.5,         62.5
    240,        137.5,       65.625
    241,        137.5,        68.75
    242,        137.5,       71.875
    243,        137.5,          75.
    244,        137.5,       78.125
    245,        137.5,        81.25
    246,        137.5,       84.375
    247,        137.5,         87.5
    248,        137.5,       90.625
    249,        137.5,        93.75
    250,        137.5,       96.875
    251,         125.,        3.125
    252,         125.,         6.25
    253,         125.,        9.375
    254,         125.,         12.5
    255,         125.,       15.625
    256,         125.,        18.75
    257,         125.,       21.875
    258,         125.,          25.
    259,         125.,       28.125
    260,         125.,        31.25
    261,         125.,       34.375
    262,         125.,         37.5
    263,         125.,       40.625
    264,         125.,        43.75
    265,         125.,       46.875
    266,         125.,          50.
    267,         125.,       53.125
    268,         125.,        56.25
    269,         125.,       59.375
    270,         125.,         62.5
    271,         125.,       65.625
    272,         125.,        68.75
    273,         125.,       71.875
    274,         125.,          75.
    275,         125.,       78.125
    276,         125.,        81.25
    277,         125.,       84.375
    278,         125.,         87.5
    279,         125.,       90.625
    280,         125.,        93.75
    281,         125.,       96.875
    282,        112.5,        3.125
    283,        112.5,         6.25
    284,        112.5,        9.375
    285,        112.5,         12.5
    286,        112.5,       15.625
    287,        112.5,        18.75
    288,        112.5,       21.875
    289,        112.5,          25.
    290,        112.5,       28.125
    291,        112.5,        31.25
    292,        112.5,       34.375
    293,        112.5,         37.5
    294,        112.5,       40.625
    295,        112.5,        43.75
    296,        112.5,       46.875
    297,        112.5,          50.
    298,        112.5,       53.125
    299,        112.5,        56.25
    300,        112.5,       59.375
    301,        112.5,         62.5
    302,        112.5,       65.625
    303,        112.5,        68.75
    304,        112.5,       71.875
    305,        112.5,          75.
    306,        112.5,       78.125
    307,        112.5,        81.25
    308,        112.5,       84.375
    309,        112.5,         87.5
    310,        112.5,       90.625
    311,        112.5,        93.75
    312,        112.5,       96.875
    313,         100.,        3.125
    314,         100.,         6.25
    315,         100.,        9.375
    316,         100.,         12.5
    317,         100.,       15.625
    318,         100.,        18.75
    319,         100.,       21.875
    320,         100.,          25.
    321,         100.,       28.125
    322,         100.,        31.25
    323,         100.,       34.375
    324,         100.,         37.5
    325,         100.,       40.625
    326,         100.,        43.75
    327,         100.,       46.875
    328,         100.,          50.
    329,         100.,       53.125
    330,         100.,        56.25
    331,         100.,       59.375
    332,         100.,         62.5
    333,         100.,       65.625
    334,         100.,        68.75
    335,         100.,       71.875
    336,         100.,          75.
    337,         100.,       78.125
    338,         100.,        81.25
    339,         100.,       84.375
    340,         100.,         87.5
    341,         100.,       90.625
    342,         100.,        93.75
    343,         100.,       96.875
    344,         87.5,        3.125
    345,         87.5,         6.25
    346,         87.5,        9.375
    347,         87.5,         12.5
    348,         87.5,       15.625
    349,         87.5,        18.75
    350,         87.5,       21.875
    351,         87.5,          25.
    352,         87.5,       28.125
    353,         87.5,        31.25
    354,         87.5,       34.375
    355,         87.5,         37.5
    356,         87.5,       40.625
    357,         87.5,        43.75
    358,         87.5,       46.875
    359,         87.5,          50.
    360,         87.5,       53.125
    361,         87.5,        56.25
    362,         87.5,       59.375
    363,         87.5,         62.5
    364,         87.5,       65.625
    365,         87.5,        68.75
    366,         87.5,       71.875
    367,         87.5,          75.
    368,         87.5,       78.125
    369,         87.5,        81.25
    370,         87.5,       84.375
    371,         87.5,         87.5
    372,         87.5,       90.625
    373,         87.5,        93.75
    374,         87.5,       96.875
    375,          75.,        3.125
    376,          75.,         6.25
    377,          75.,        9.375
    378,          75.,         12.5
    379,          75.,       15.625
    380,          75.,        18.75
    381,          75.,       21.875
    382,          75.,          25.
    383,          75.,       28.125
    384,          75.,        31.25
    385,          75.,       34.375
    386,          75.,         37.5
    387,          75.,       40.625
    388,          75.,        43.75
    389,          75.,       46.875
    390,          75.,          50.
    391,          75.,       53.125
    392,          75.,        56.25
    393,          75.,       59.375
    394,          75.,         62.5
    395,          75.,       65.625
    396,          75.,        68.75
    397,          75.,       71.875
    398,          75.,          75.
    399,          75.,       78.125
    400,          75.,        81.25
    401,          75.,       84.375
    402,          75.,         87.5
    403,          75.,       90.625
    404,          75.,        93.75
    405,          75.,       96.875
    406,         62.5,        3.125
    407,         62.5,         6.25
    408,         62.5,        9.375
    409,         62.5,         12.5
    410,         62.5,       15.625
    411,         62.5,        18.75
    412,         62.5,       21.875
    413,         62.5,          25.
    414,         62.5,       28.125
    415,         62.5,        31.25
    416,         62.5,       34.375
    417,         62.5,         37.5
    418,         62.5,       40.625
    419,         62.5,        43.75
    420,         62.5,       46.875
    421,         62.5,          50.
    422,         62.5,       53.125
    423,         62.5,        56.25
    424,         62.5,       59.375
    425,         62.5,         62.5
    426,         62.5,       65.625
    427,         62.5,        68.75
    428,         62.5,       71.875
    429,         62.5,          75.
    430,         62.5,       78.125
    431,         62.5,        81.25
    432,         62.5,       84.375
    433,         62.5,         87.5
    434,         62.5,       90.625
    435,         62.5,        93.75
    436,         62.5,       96.875
    437,          50.,        3.125
    438,          50.,         6.25
    439,          50.,        9.375
    440,          50.,         12.5
    441,          50.,       15.625
    442,          50.,        18.75
    443,          50.,       21.875
    444,          50.,          25.
    445,          50.,       28.125
    446,          50.,        31.25
    447,          50.,       34.375
    448,          50.,         37.5
    449,          50.,       40.625
    450,          50.,        43.75
    451,          50.,       46.875
    452,          50.,          50.
    453,          50.,       53.125
    454,          50.,        56.25
    455,          50.,       59.375
    456,          50.,         62.5
    457,          50.,       65.625
    458,          50.,        68.75
    459,          50.,       71.875
    460,          50.,          75.
    461,          50.,       78.125
    462,          50.,        81.25
    463,          50.,       84.375
    464,          50.,         87.5
    465,          50.,       90.625
    466,          50.,        93.75
    467,          50.,       96.875
    468,         37.5,        3.125
    469,         37.5,         6.25
    470,         37.5,        9.375
    471,         37.5,         12.5
    472,         37.5,       15.625
    473,         37.5,        18.75
    474,         37.5,       21.875
    475,         37.5,          25.
    476,         37.5,       28.125
    477,         37.5,        31.25
    478,         37.5,       34.375
    479,         37.5,         37.5
    480,         37.5,       40.625
    481,         37.5,        43.75
    482,         37.5,       46.875
    483,         37.5,          50.
    484,         37.5,       53.125
    485,         37.5,        56.25
    486,         37.5,       59.375
    487,         37.5,         62.5
    488,         37.5,       65.625
    489,         37.5,        68.75
    490,         37.5,       71.875
    491,         37.5,          75.
    492,         37.5,       78.125
    493,         37.5,        81.25
    494,         37.5,       84.375
    495,         37.5,         87.5
    496,         37.5,       90.625
    497,         37.5,        93.75
    498,         37.5,       96.875
    499,          25.,        3.125
    500,          25.,         6.25
    501,          25.,        9.375
    502,          25.,         12.5
    503,          25.,       15.625
    504,          25.,        18.75
    505,          25.,       21.875
    506,          25.,          25.
    507,          25.,       28.125
    508,          25.,        31.25
    509,          25.,       34.375
    510,          25.,         37.5
    511,          25.,       40.625
    512,          25.,        43.75
    513,          25.,       46.875
    514,          25.,          50.
    515,          25.,       53.125
    516,          25.,        56.25
    517,          25.,       59.375
    518,          25.,         62.5
    519,          25.,       65.625
    520,          25.,        68.75
    521,          25.,       71.875
    522,          25.,          75.
    523,          25.,       78.125
    524,          25.,        81.25
    525,          25.,       84.375
    526,          25.,         87.5
    527,          25.,       90.625
    528,          25.,        93.75
    529,          25.,       96.875
    530,         12.5,        3.125
    531,         12.5,         6.25
    532,         12.5,        9.375
    533,         12.5,         12.5
    534,         12.5,       15.625
    535,         12.5,        18.75
    536,         12.5,       21.875
    537,         12.5,          25.
    538,         12.5,       28.125
    539,         12.5,        31.25
    540,         12.5,       34.375
    541,         12.5,         37.5
    542,         12.5,       40.625
    543,         12.5,        43.75
    544,         12.5,       46.875
    545,         12.5,          50.
    546,         12.5,       53.125
    547,         12.5,        56.25
    548,         12.5,       59.375
    549,         12.5,         62.5
    550,         12.5,       65.625
    551,         12.5,        68.75
    552,         12.5,       71.875
    553,         12.5,          75.
    554,         12.5,       78.125
    555,         12.5,        81.25
    556,         12.5,       84.375
    557,         12.5,         87.5
    558,         12.5,       90.625
    559,         12.5,        93.75
    560,         12.5,       96.875
    561,        212.5,       96.875
    562,        212.5,        93.75
    563,        212.5,       90.625
    564,        212.5,         87.5
    565,        212.5,       84.375
    566,        212.5,        81.25
    567,        212.5,       78.125
    568,        212.5,          75.
    569,        212.5,       71.875
    570,        212.5,        68.75
    571,        212.5,       65.625
    572,        212.5,         62.5
    573,        212.5,       59.375
    574,        212.5,        56.25
    575,        212.5,       53.125
    576,        212.5,          50.
    577,        212.5,       46.875
    578,        212.5,        43.75
    579,        212.5,       40.625
    580,        212.5,         37.5
    581,        212.5,       34.375
    582,        212.5,        31.25
    583,        212.5,       28.125
    584,        212.5,          25.
    585,        212.5,       21.875
    586,        212.5,        18.75
    587,        212.5,       15.625
    588,        212.5,         12.5
    589,        212.5,        9.375
    590,        212.5,         6.25
    591,        212.5,        3.125
    592,         225.,       96.875
    593,         225.,        93.75
    594,         225.,       90.625
    595,         225.,         87.5
    596,         225.,       84.375
    597,         225.,        81.25
    598,         225.,       78.125
    599,         225.,          75.
    600,         225.,       71.875
    601,         225.,        68.75
    602,         225.,       65.625
    603,         225.,         62.5
    604,         225.,       59.375
    605,         225.,        56.25
    606,         225.,       53.125
    607,         225.,          50.
    608,         225.,       46.875
    609,         225.,        43.75
    610,         225.,       40.625
    611,         225.,         37.5
    612,         225.,       34.375
    613,         225.,        31.25
    614,         225.,       28.125
    615,         225.,          25.
    616,         225.,       21.875
    617,         225.,        18.75
    618,         225.,       15.625
    619,         225.,         12.5
    620,         225.,        9.375
    621,         225.,         6.25
    622,         225.,        3.125
    623,        237.5,       96.875
    624,        237.5,        93.75
    625,        237.5,       90.625
    626,        237.5,         87.5
    627,        237.5,       84.375
    628,        237.5,        81.25
    629,        237.5,       78.125
    630,        237.5,          75.
    631,        237.5,       71.875
    632,        237.5,        68.75
    633,        237.5,       65.625
    634,        237.5,         62.5
    635,        237.5,       59.375
    636,        237.5,        56.25
    637,        237.5,       53.125
    638,        237.5,          50.
    639,        237.5,       46.875
    640,        237.5,        43.75
    641,        237.5,       40.625
    642,        237.5,         37.5
    643,        237.5,       34.375
    644,        237.5,        31.25
    645,        237.5,       28.125
    646,        237.5,          25.
    647,        237.5,       21.875
    648,        237.5,        18.75
    649,        237.5,       15.625
    650,        237.5,         12.5
    651,        237.5,        9.375
    652,        237.5,         6.25
    653,        237.5,        3.125
    654,         250.,       96.875
    655,         250.,        93.75
    656,         250.,       90.625
    657,         250.,         87.5
    658,         250.,       84.375
    659,         250.,        81.25
    660,         250.,       78.125
    661,         250.,          75.
    662,         250.,       71.875
    663,         250.,        68.75
    664,         250.,       65.625
    665,         250.,         62.5
    666,         250.,       59.375
    667,         250.,        56.25
    668,         250.,       53.125
    669,         250.,          50.
    670,         250.,       46.875
    671,         250.,        43.75
    672,         250.,       40.625
    673,         250.,         37.5
    674,         250.,       34.375
    675,         250.,        31.25
    676,         250.,       28.125
    677,         250.,          25.
    678,         250.,       21.875
    679,         250.,        18.75
    680,         250.,       15.625
    681,         250.,         12.5
    682,         250.,        9.375
    683,         250.,         6.25
    684,         250.,        3.125
    685,        262.5,       96.875
    686,        262.5,        93.75
    687,        262.5,       90.625
    688,        262.5,         87.5
    689,        262.5,       84.375
    690,        262.5,        81.25
    691,        262.5,       78.125
    692,        262.5,          75.
    693,        262.5,       71.875
    694,        262.5,        68.75
    695,        262.5,       65.625
    696,        262.5,         62.5
    697,        262.5,       59.375
    698,        262.5,        56.25
    699,        262.5,       53.125
    700,        262.5,          50.
    701,        262.5,       46.875
    702,        262.5,        43.75
    703,        262.5,       40.625
    704,        262.5,         37.5
    705,        262.5,       34.375
    706,        262.5,        31.25
    707,        262.5,       28.125
    708,        262.5,          25.
    709,        262.5,       21.875
    710,        262.5,        18.75
    711,        262.5,       15.625
    712,        262.5,         12.5
    713,        262.5,        9.375
    714,        262.5,         6.25
    715,        262.5,        3.125
    716,         275.,       96.875
    717,         275.,        93.75
    718,         275.,       90.625
    719,         275.,         87.5
    720,         275.,       84.375
    721,         275.,        81.25
    722,         275.,       78.125
    723,         275.,          75.
    724,         275.,       71.875
    725,         275.,        68.75
    726,         275.,       65.625
    727,         275.,         62.5
    728,         275.,       59.375
    729,         275.,        56.25
    730,         275.,       53.125
    731,         275.,          50.
    732,         275.,       46.875
    733,         275.,        43.75
    734,         275.,       40.625
    735,         275.,         37.5
    736,         275.,       34.375
    737,         275.,        31.25
    738,         275.,       28.125
    739,         275.,          25.
    740,         275.,       21.875
    741,         275.,        18.75
    742,         275.,       15.625
    743,         275.,         12.5
    744,         275.,        9.375
    745,         275.,         6.25
    746,         275.,        3.125
    747,        287.5,       96.875
    748,        287.5,        93.75
    749,        287.5,       90.625
    750,        287.5,         87.5
    751,        287.5,       84.375
    752,        287.5,        81.25
    753,        287.5,       78.125
    754,        287.5,          75.
    755,        287.5,       71.875
    756,        287.5,        68.75
    757,        287.5,       65.625
    758,        287.5,         62.5
    759,        287.5,       59.375
    760,        287.5,        56.25
    761,        287.5,       53.125
    762,        287.5,          50.
    763,        287.5,       46.875
    764,        287.5,        43.75
    765,        287.5,       40.625
    766,        287.5,         37.5
    767,        287.5,       34.375
    768,        287.5,        31.25
    769,        287.5,       28.125
    770,        287.5,          25.
    771,        287.5,       21.875
    772,        287.5,        18.75
    773,        287.5,       15.625
    774,        287.5,         12.5
    775,        287.5,        9.375
    776,        287.5,         6.25
    777,        287.5,        3.125
    778,         300.,       96.875
    779,         300.,        93.75
    780,         300.,       90.625
    781,         300.,         87.5
    782,         300.,       84.375
    783,         300.,        81.25
    784,         300.,       78.125
    785,         300.,          75.
    786,         300.,       71.875
    787,         300.,        68.75
    788,         300.,       65.625
    789,         300.,         62.5
    790,         300.,       59.375
    791,         300.,        56.25
    792,         300.,       53.125
    793,         300.,          50.
    794,         300.,       46.875
    795,         300.,        43.75
    796,         300.,       40.625
    797,         300.,         37.5
    798,         300.,       34.375
    799,         300.,        31.25
    800,         300.,       28.125
    801,         300.,          25.
    802,         300.,       21.875
    803,         300.,        18.75
    804,         300.,       15.625
    805,         300.,         12.5
    806,         300.,        9.375
    807,         300.,         6.25
    808,         300.,        3.125
    809,        312.5,       96.875
    810,        312.5,        93.75
    811,        312.5,       90.625
    812,        312.5,         87.5
    813,        312.5,       84.375
    814,        312.5,        81.25
    815,        312.5,       78.125
    816,        312.5,          75.
    817,        312.5,       71.875
    818,        312.5,        68.75
    819,        312.5,       65.625
    820,        312.5,         62.5
    821,        312.5,       59.375
    822,        312.5,        56.25
    823,        312.5,       53.125
    824,        312.5,          50.
    825,        312.5,       46.875
    826,        312.5,        43.75
    827,        312.5,       40.625
    828,        312.5,         37.5
    829,        312.5,       34.375
    830,        312.5,        31.25
    831,        312.5,       28.125
    832,        312.5,          25.
    833,        312.5,       21.875
    834,        312.5,        18.75
    835,        312.5,       15.625
    836,        312.5,         12.5
    837,        312.5,        9.375
    838,        312.5,         6.25
    839,        312.5,        3.125
    840,         325.,       96.875
    841,         325.,        93.75
    842,         325.,       90.625
    843,         325.,         87.5
    844,         325.,       84.375
    845,         325.,        81.25
    846,         325.,       78.125
    847,         325.,          75.
    848,         325.,       71.875
    849,         325.,        68.75
    850,         325.,       65.625
    851,         325.,         62.5
    852,         325.,       59.375
    853,         325.,        56.25
    854,         325.,       53.125
    855,         325.,          50.
    856,         325.,       46.875
    857,         325.,        43.75
    858,         325.,       40.625
    859,         325.,         37.5
    860,         325.,       34.375
    861,         325.,        31.25
    862,         325.,       28.125
    863,         325.,          25.
    864,         325.,       21.875
    865,         325.,        18.75
    866,         325.,       15.625
    867,         325.,         12.5
    868,         325.,        9.375
    869,         325.,         6.25
    870,         325.,        3.125
    871,        337.5,       96.875
    872,        337.5,        93.75
    873,        337.5,       90.625
    874,        337.5,         87.5
    875,        337.5,       84.375
    876,        337.5,        81.25
    877,        337.5,       78.125
    878,        337.5,          75.
    879,        337.5,       71.875
    880,        337.5,        68.75
    881,        337.5,       65.625
    882,        337.5,         62.5
    883,        337.5,       59.375
    884,        337.5,        56.25
    885,        337.5,       53.125
    886,        337.5,          50.
    887,        337.5,       46.875
    888,        337.5,        43.75
    889,        337.5,       40.625
    890,        337.5,         37.5
    891,        337.5,       34.375
    892,        337.5,        31.25
    893,        337.5,       28.125
    894,        337.5,          25.
    895,        337.5,       21.875
    896,        337.5,        18.75
    897,        337.5,       15.625
    898,        337.5,         12.5
    899,        337.5,        9.375
    900,        337.5,         6.25
    901,        337.5,        3.125
    902,   174.915726,   22.3575516
    903,   183.565643,    2.9229126
    904,   157.278412,   2.81756473
    905,   160.361328,   2.68534827
    906,   163.359711,    2.6582613
    907,   166.406189,   2.68418026
    908,   169.656418,   2.78301239
    909,   186.627762,   2.73430681
    910,    189.62706,   2.66754961
    911,   192.701324,     2.754498
    912,   195.960403,   2.80707288
    913,    197.30513,   29.6849003
    914,   152.706329,      79.6875
    915,   152.700043,   17.1884346
    916,   197.291885,    14.062851
    917,   197.294617,   17.1887512
    918,   197.299301,   20.3136234
    919,   197.303238,   23.4379692
    920,   197.305832,   26.5621948
    921,   197.305054,   32.8054047
    922,   197.298248,   48.4380951
    923,   197.294357,   57.8123398
    924,   197.293671,      70.3125
    925,   152.706329,      82.8125
    926,   197.293671,      73.4375
    927,   152.706329,      85.9375
    928,   157.766846,    97.170639
    929,   197.293671,      76.5625
    930,   197.293671,      79.6875
    931,   197.293671,      82.8125
    932,   197.293671,      85.9375
    933,   197.268127,   89.0797424
    934,   197.173813,   92.3090591
    935,   197.151031,    95.746666
    936,     173.4375,   97.2936707
    937,     170.3125,   97.2936707
    938,     167.1875,   97.2936707
    939,   152.706329,      89.0625
    940,   152.763596,   92.3161926
    941,   152.785065,      95.7388
    942,   197.293671,      67.1875
    943,   152.706329,      76.5625
    944,   197.293686,      64.0625
    945,   152.706329,      73.4375
    946,    197.29393,   60.9374199
    947,   152.706329,      70.3125
    948,   152.706329,      67.1875
    949,   197.295456,   54.6872406
    950,   152.706329,      64.0625
    951,   197.296844,   51.5625381
    952,   152.706299,   60.9374962
    953,   152.706161,   57.8124847
    954,   152.705612,   54.6873512
    955,   152.704391,   51.5621071
    956,   152.702454,   48.4369354
    957,   152.700089,   45.3119621
    958,   152.697983,     42.18713
    959,   152.696426,   39.0622749
    960,   152.695023,   35.9373474
    961,   152.694199,   32.8123627
    962,   152.693436,   29.6873703
    963,   152.693085,   26.5624104
    964,   152.693588,    23.437458
    965,   152.695709,   20.3130779
    966,   152.701477,    14.062974
    967,   152.701187,   10.9343815
    968,   152.692703,   7.84237909
    969,   152.451752,   5.20845556
    970,   197.277863,   10.9040642
    971,    197.30983,   7.78736544
    972,   179.064514,   11.6864538
    973,   179.135757,   18.9667377
    974,   171.178635,   18.4428425
    975,   171.082809,    5.2682476
    976,   170.815872,   11.7047758
    977,   170.981277,   15.0411463
    978,   179.020187,   8.33456516
    979,   178.750839,    5.5241046
    980,   179.064804,   15.1516914
    981,   177.835648,    22.206398
    982,   171.607941,   21.9661541
    983,   180.309784,   3.00080657
    984,   154.030396,   2.84755993
    985,    188.17305,   5.42297888
    986,   161.847565,   5.31044912
    987,   191.186966,   5.40076113
    988,   158.833145,   5.42698288
    989,   164.925827,   5.30398417
    990,   185.174927,   5.63389158
    991,   155.146851,   97.4202805
    992,   164.042664,   97.2357712
    993,   194.617218,   25.0012016
    994,   194.435944,   15.5646772
    995,   197.301208,   42.1874352
    996,   197.300293,   45.3133965
    997,   194.587692,   62.4998169
    998,      171.875,   94.5873413
    999,   155.412659,        81.25
   1000,   194.587341,          75.
   1001,   194.568024,   87.4945679
   1002,    179.68718,   97.2928696
   1003,   194.587341,        81.25
   1004,   194.587341,        68.75
   1005,   194.587433,   65.6249619
   1006,   194.590393,   56.2488708
   1007,   194.592972,   53.1240959
   1008,   155.377487,   31.2492428
   1009,    155.47731,   5.91636133
   1010,   155.399048,     15.62708
   1011,     194.4245,   12.3056765
   1012,   194.613358,   9.14872551
   1013,   155.412659,       78.125
   1014,   155.378143,   25.0003567
   1015,   194.550125,   18.7360821
   1016,   194.601608,   21.8762779
   1017,    194.62085,   28.1207428
   1018,   194.619843,   31.2359657
   1019,     155.4048,   49.9976349
   1020,   194.587341,       71.875
   1021,   160.905045,   97.1741333
   1022,   155.443649,   90.6378784
   1023,   194.587341,       78.125
   1024,   176.562454,    97.293541
   1025,   194.584122,   84.3740921
   1026,   185.934937,   97.2500763
   1027,   194.489731,   90.6405487
   1028,   192.158371,   97.1915894
   1029,       168.75,   94.5873413
   1030,   155.412659,       84.375
   1031,   155.411484,   87.4904022
   1032,    155.86969,   94.1952667
   1033,   155.412659,          75.
   1034,   194.588715,   59.3743134
   1035,   155.412659,       71.875
   1036,   155.412659,        68.75
   1037,   155.412659,       65.625
   1038,   194.596542,   49.9994011
   1039,   155.412552,   62.4999657
   1040,   155.412201,   59.3748741
   1041,   155.411087,   56.2494278
   1042,   155.408447,   53.1234093
   1043,   155.399094,   46.8721008
   1044,   155.393021,   43.7475319
   1045,    155.38739,   40.6233063
   1046,   155.382843,   37.4988136
   1047,    155.37851,   34.3739281
   1048,   155.374619,   28.1247139
   1049,   155.383102,   21.8774357
   1050,   155.391312,   18.7540665
   1051,   155.466064,   12.4375429
   1052,   155.412216,   9.27114773
   1053,    170.30043,   8.19217587
   1054,    168.09491,   13.4002562
   1055,   181.822021,   6.22635603
   1056,      181.806,   9.87183571
   1057,    181.87146,   13.3356123
   1058,   168.383606,    16.761692
   1059,   181.772797,   16.8194218
   1060,   168.153214,   5.36311436
   1061,   194.518906,   5.82486153
   1062,   194.068069,   94.1971512
   1063,   173.402328,   24.8963223
   1064,    176.44249,   24.8924675
   1065,   166.593719,   8.07402992
   1066,   189.812881,   8.00037575
   1067,    160.29776,   7.85537386
   1068,   186.809647,   8.25043201
   1069,   163.334076,   7.99447727
   1070,   194.617386,   34.3565216
   1071,   194.600891,   46.8756294
   1072,   197.305374,   35.9300613
   1073,   182.809814,    97.280632
   1074,   189.060776,   97.1951904
   1075,   165.621796,   94.4979248
   1076,   159.280472,   94.2880936
   1077,   174.999985,   94.5873184
   1078,   197.303665,   39.0582123
   1079,   158.118988,      76.5625
   1080,   191.879761,   82.8140869
   1081,   191.881073,   67.1874619
   1082,   158.118988,      79.6875
   1083,   158.094727,   85.9324417
   1084,   191.881424,   64.0621643
   1085,     170.3125,    91.881012
   1086,   191.880814,    79.687767
   1087,   191.880981,   76.5625458
   1088,   191.881012,   73.4375076
   1089,   157.894012,   91.8434601
   1090,   191.866898,   85.9408722
   1091,   191.863556,   89.0956268
   1092,   158.114944,   82.8116531
   1093,   158.059677,   89.0929947
   1094,   191.881027,   70.3124924
   1095,   191.882553,   60.9363022
   1096,   158.118988,      73.4375
   1097,   158.118988,      70.3125
   1098,   158.118988,      67.1875
   1099,   158.118835,   64.0624008
   1100,   158.118225,   60.9370613
   1101,   158.116699,   57.8112106
   1102,   158.057983,   23.4439564
   1103,   158.073822,   20.3237057
   1104,   158.113235,   54.6843834
   1105,   191.946381,   29.6684361
   1106,   158.047958,   26.5642414
   1107,   191.930313,    23.446312
   1108,   191.944763,   26.5596313
   1109,   158.057083,    35.933754
   1110,   158.049713,   32.8093681
   1111,    158.06485,   39.0573349
   1112,   158.045135,    29.686058
   1113,   191.884995,   57.8100014
   1114,   158.075714,   42.1805305
   1115,   178.124573,   94.5862427
   1116,   162.458908,   94.3283081
   1117,   191.888458,   54.6845398
   1118,   191.893845,   51.5590286
   1119,   158.087677,   45.3044167
   1120,   191.105591,   13.7697067
   1121,   158.107193,    51.556881
   1122,   191.875778,   20.3138866
   1123,   158.245178,    14.012002
   1124,   158.098312,   48.4297829
   1125,   157.701447,   7.81027508
   1126,   191.825699,    10.304904
   1127,   158.114014,    17.187788
   1128,    158.56691,   10.5766592
   1129,   191.721893,   17.2100811
   1130,   194.605316,   43.7500191
   1131,   192.029221,   91.8871994
   1132,   168.680069,   20.1373539
   1133,   197.557831,   5.15885973
   1134,    168.10495,   10.5475311
   1135,   185.030716,   11.3982468
   1136,   165.582062,   15.2450047
   1137,   184.521255,   15.2327271
   1138,   164.711365,   11.5325689
   1139,   170.370438,   25.0421505
   1140,   179.539459,   24.7960052
   1141,   188.676544,   10.9655218
   1142,   189.087463,   91.0817566
   1143,   192.391556,   7.73592567
   1144,   191.943588,   32.7827873
   1145,   160.725204,   18.7260628
   1146,   189.237793,   18.8396339
   1147,   191.901108,    48.434906
   1148,     189.2005,   21.8965607
   1149,   194.610535,   40.6193123
   1150,   160.785156,   46.8582497
   1151,   160.766464,   43.7326088
   1152,    160.74733,   40.6097603
   1153,   160.675217,    28.110466
   1154,   160.729965,   37.4877777
   1155,   160.648895,   24.9743042
   1156,   189.232208,   28.0453968
   1157,   190.649551,   94.3233414
   1158,    184.28656,   94.4227066
   1159,   167.203308,    91.812645
   1160,     173.4375,    91.881012
   1161,   160.859207,   84.4333801
   1162,   189.172852,   81.2536087
   1163,   189.174744,   68.7499313
   1164,    189.17511,    65.624527
   1165,   189.202301,   87.5542984
   1166,   160.825317,       78.125
   1167,   189.171829,   84.3930664
   1168,   160.793442,   91.1284256
   1169,    189.17421,   78.1258774
   1170,   189.174606,   75.0001526
   1171,   160.825317,          75.
   1172,   189.174683,   71.8750076
   1173,   160.830292,   81.2595901
   1174,    160.78511,   87.6596146
   1175,   160.825317,       71.875
   1176,   160.825302,   68.7499924
   1177,    160.82515,   65.6248245
   1178,   160.824432,   62.4992027
   1179,   189.176315,   62.4982758
   1180,   176.562363,   91.8806686
   1181,   164.131454,   91.6598129
   1182,   181.197418,   94.5080414
   1183,   187.443878,   94.2872162
   1184,   189.189636,   53.1174965
   1185,     189.1642,   24.9558163
   1186,   160.664413,   21.8440418
   1187,   160.818512,    56.244976
   1188,   194.615921,   37.4865723
   1189,   160.822311,   59.3725433
   1190,   160.696747,   31.2400265
   1191,   160.712891,   34.3646088
   1192,   189.179001,   59.3711548
   1193,   189.183365,   56.2442169
   1194,   160.799561,   49.9860153
   1195,   191.909988,     45.31036
   1196,   160.810394,   53.1152534
   1197,   160.793015,     15.65448
   1198,   189.276321,   16.2119198
   1199,   174.968628,   27.5175991
   1200,   161.178635,   12.6968832
   1201,   165.902695,   18.6056309
   1202,   184.218399,   18.4631805
   1203,   184.128662,   8.27615261
   1204,   187.575333,   14.1248055
   1205,   171.859512,   27.6243382
   1206,    180.87262,    21.981596
   1207,   186.823181,   88.8658676
   1208,   178.003082,   27.4486866
   1209,   189.268341,   31.1692238
   1210,   191.938751,   35.9111786
   1211,   186.586945,   20.2143517
   1212,   163.320343,   20.2915039
   1213,   186.352066,   23.2701969
   1214,   191.920517,   42.1802864
   1215,   163.191406,   23.4484959
   1216,   186.387848,   26.4241562
   1217,   163.117065,   26.4356441
   1218,   189.199387,   49.9918327
   1219,   163.434143,   42.1551857
   1220,   163.461212,   45.2795792
   1221,   163.356064,   29.4675045
   1222,   163.405884,   39.0342445
   1223,   163.476807,   32.6621361
   1224,    163.41597,   35.8778572
   1225,   168.790573,   89.1207581
   1226,   171.894104,   89.1535873
   1227,   185.661194,   91.4185181
   1228,   179.560593,   91.8684082
   1229,   163.551727,   82.8243179
   1230,   163.534164,   79.6975479
   1231,   186.487183,   86.0835037
   1232,   186.468094,   76.5629883
   1233,    186.46875,   67.1869278
   1234,   186.430939,   82.8783188
   1235,   163.532059,   76.5641785
   1236,   186.461502,   79.6996384
   1237,    186.46846,    70.312355
   1238,   186.468307,   73.4375992
   1239,   163.885452,   86.2180862
   1240,   163.531708,   73.4377823
   1241,   163.531647,   70.3125381
   1242,   163.531494,   67.1872787
   1243,   165.723999,   89.0538177
   1244,   175.001205,   89.1680908
   1245,   182.534637,   91.6601715
   1246,   163.530807,   64.0614471
   1247,    186.46994,   64.0603638
   1248,   163.528793,   60.9343872
   1249,   163.524277,   57.8052788
   1250,   186.472656,   60.9324379
   1251,   186.484177,   54.6756821
   1252,   163.515549,   54.6737289
   1253,   186.477325,   57.8041573
   1254,   163.484268,   48.4091148
   1255,   189.212799,   46.8665161
   1256,   163.243149,    17.145277
   1257,   163.501724,   51.5407791
   1258,   186.902679,   17.1811028
   1259,   191.931625,   39.0455627
   1260,   163.101639,   14.4548426
   1261,   181.939453,   19.5439281
   1262,   194.800491,   97.4270859
   1263,     166.1138,   22.2006626
   1264,   168.878342,   22.8820019
   1265,   167.492172,   25.0648232
   1266,   183.846817,   21.3632202
   1267,   183.133392,   24.7522583
   1268,    183.71376,   88.3521347
   1269,   168.704575,   27.7080326
   1270,   180.986588,   27.4971733
   1271,    186.56749,   29.6017284
   1272,   173.357559,   30.3012619
   1273,   176.446579,   30.1423149
   1274,   189.272186,   34.3218918
   1275,   189.229736,   43.7371254
   1276,   165.738312,   27.3854427
   1277,    166.08844,   40.5714378
   1278,   166.093872,    37.388649
   1279,   186.495407,   51.5476151
   1280,   166.125977,   43.6937943
   1281,   166.621262,   30.6436558
   1282,   166.191406,   34.1507835
   1283,   170.384827,   86.3433609
   1284,   163.063889,   89.1439514
   1285,   178.104919,   89.2025833
   1286,   183.762054,    71.874939
   1287,   166.219559,    78.149292
   1288,   165.957123,   83.9920044
   1289,   183.660233,   81.3035431
   1290,    166.15657,   81.2793045
   1291,   183.536453,   84.6350632
   1292,    183.74382,   78.1361237
   1293,   166.232117,    75.007019
   1294,   183.758926,   75.0019684
   1295,   166.236588,   71.8765945
   1296,    183.76236,   68.7493668
   1297,    166.23761,   68.7500305
   1298,   167.260529,   86.3286057
   1299,   173.537811,   86.3360062
   1300,   180.822784,   89.4891052
   1301,   166.237183,   65.6238327
   1302,   183.763443,   65.6226196
   1303,   166.235336,   62.4962692
   1304,   183.766022,   62.4940262
   1305,   166.230789,   59.3659859
   1306,   166.159241,   46.8243484
   1307,   166.221649,   56.2322655
   1308,   183.770264,   59.3650322
   1309,    183.77774,   56.2343369
   1310,   186.512299,    48.419426
   1311,   166.185928,   49.9594154
   1312,   166.206116,   53.0956764
   1313,   189.247681,   40.6025658
   1314,   189.263504,   37.4638023
   1315,   161.617752,   10.1311922
   1316,   165.130554,   24.9070148
   1317,    170.14267,   30.4127636
   1318,   179.376526,   30.1017303
   1319,   183.835785,   28.2173996
   1320,   186.613205,   32.7377625
   1321,   174.837769,    32.986763
   1322,   168.753983,   38.8761673
   1323,   186.535507,   45.2885857
   1324,   168.782135,   35.6252708
   1325,   168.781555,   42.0742722
   1326,   183.789459,     53.10355
   1327,   168.663055,    32.860775
   1328,   176.732498,   86.3784409
   1329,   172.058044,   83.6103973
   1330,   180.948746,   79.6932144
   1331,   169.001648,   70.3153534
   1332,    180.94278,   70.3119659
   1333,   180.788361,   82.8688049
   1334,   168.884689,   79.8479233
   1335,   169.099411,   76.6758423
   1336,   181.029724,   76.5644913
   1337,   180.996323,   73.4380493
   1338,   169.113373,   73.4723053
   1339,   180.271301,   86.4195328
   1340,   168.962891,   67.1872101
   1341,   180.876022,   67.1852798
   1342,   168.946793,   64.0586548
   1343,   180.858383,   64.0565567
   1344,   168.938782,   60.9272728
   1345,   180.856369,   60.9265785
   1346,   186.561905,   42.1545868
   1347,   168.928986,   57.7914963
   1348,   168.823303,   45.2245979
   1349,   180.859894,   57.7932205
   1350,    183.80838,   49.9711609
   1351,   168.913147,   54.6516075
   1352,   168.860748,    48.367424
   1353,   168.890045,   51.5093422
   1354,   186.587265,   39.0169487
   1355,    186.60112,   35.8791771
   1356,   177.808853,   32.8964615
   1357,   171.545181,   33.5500641
   1358,   183.981323,   31.2612343
   1359,   171.423721,   37.0853081
   1360,   171.473969,   40.3210678
   1361,   183.838913,   46.8354034
   1362,   180.866379,   54.6582489
   1363,   168.817963,   83.2430725
   1364,   175.340012,   83.2309341
   1365,    178.17276,   81.2910385
   1366,   178.152893,   75.0171204
   1367,   177.979889,    71.883316
   1368,   172.173599,   78.6586609
   1369,   178.186768,   78.1721344
   1370,   172.128403,   75.1335449
   1371,   171.974304,   71.9094162
   1372,   178.260986,   84.0377502
   1373,   171.859741,   68.7567368
   1374,   177.867447,    68.751236
   1375,     171.8013,   65.6228943
   1376,   177.805099,   65.6209564
   1377,   171.777573,   62.4903183
   1378,   177.782639,   62.4897537
   1379,   171.596512,   43.4967804
   1380,   171.764587,   59.3540115
   1381,   183.888428,   43.6978378
   1382,   177.775589,   59.3545723
   1383,   183.841583,   40.5041008
   1384,   171.760925,   56.2137985
   1385,   180.907333,   51.5198898
   1386,   171.744827,   49.9138832
   1387,   171.779175,     53.06987
   1388,   171.811127,   46.6811218
   1389,    183.90094,   37.3550682
   1390,   183.967957,   34.3108025
   1391,   181.843002,   29.9816761
   1392,   173.645844,    35.552803
   1393,   176.231628,   35.6428185
   1394,   181.106033,   32.8579597
   1395,   174.432953,   38.5082512
   1396,   180.970474,   48.3572922
   1397,   174.151016,   41.7802505
   1398,   173.206558,   81.3248901
   1399,   175.189011,   76.7118073
   1400,   175.045242,    73.495697
   1401,   175.378113,   79.8982468
   1402,   174.906906,   70.3305283
   1403,   177.782608,   56.2169304
   1404,   174.819336,   67.1897049
   1405,   174.774841,   64.0558472
   1406,   181.136993,    41.996109
   1407,   174.754791,   60.9209061
   1408,   180.886078,   38.6044388
   1409,   181.023376,   45.1356926
   1410,   174.756943,   57.7833519
   1411,   177.823227,   53.0750351
   1412,   174.831863,    51.484642
   1413,   174.789124,   54.6406059
   1414,   174.960968,   44.6936378
   1415,   181.789841,   35.7562714
   1416,   174.905563,   48.2249756
   1417,   179.246384,   35.6746559
   1418,   176.553177,   40.8618622
   1419,   177.917679,   49.8856392
   1420,   171.028168,   81.3369904
   1421,   178.083359,   43.2366333
   1422,   177.976898,   46.5889778
   1423,   177.708801,   38.3206673
   1424,   178.873672,   40.6039429
   1425,   175.937134,   42.6430969
*Element, type=CPS3
  1,   1,  13, 220
  2, 220,  96,   1
  3,  13,  14, 221
  4, 221, 220,  13
  5,  14,  15, 222
  6, 222, 221,  14
  7,  15,  16, 223
  8, 223, 222,  15
  9,  16,  17, 224
 10, 224, 223,  16
 11,  17,  18, 225
 12, 225, 224,  17
 13,  18,  19, 226
 14, 226, 225,  18
 15,  19,  20, 227
 16, 227, 226,  19
 17,  20,  21, 228
 18, 228, 227,  20
 19,  21,  22, 229
 20, 229, 228,  21
 21,  22,  23, 230
 22, 230, 229,  22
 23,  23,  24, 231
 24, 231, 230,  23
 25,  24,  25, 232
 26, 232, 231,  24
 27,  25,  26, 233
 28, 233, 232,  25
 29,  26,  27, 234
 30, 234, 233,  26
 31,  27,  28, 235
 32, 235, 234,  27
 33,  28,  29, 236
 34, 236, 235,  28
 35,  29,  30, 237
 36, 237, 236,  29
 37,  30,  31, 238
 38, 238, 237,  30
 39,  31,  32, 239
 40, 239, 238,  31
 41,  32,  33, 240
 42, 240, 239,  32
 43,  33,  34, 241
 44, 241, 240,  33
 45,  34,  35, 242
 46, 242, 241,  34
 47,  35,  36, 243
 48, 243, 242,  35
 49,  36,  37, 244
 50, 244, 243,  36
 51,  37,  38, 245
 52, 245, 244,  37
 53,  38,  39, 246
 54, 246, 245,  38
 55,  39,  40, 247
 56, 247, 246,  39
 57,  40,  41, 248
 58, 248, 247,  40
 59,  41,  42, 249
 60, 249, 248,  41
 61,  42,  43, 250
 62, 250, 249,  42
 63,  43,   2,  44
 64,  44, 250,  43
 65,  96, 220, 251
 66, 251,  95,  96
 67, 220, 221, 252
 68, 252, 251, 220
 69, 221, 222, 253
 70, 253, 252, 221
 71, 222, 223, 254
 72, 254, 253, 222
 73, 223, 224, 255
 74, 255, 254, 223
 75, 224, 225, 256
 76, 256, 255, 224
 77, 225, 226, 257
 78, 257, 256, 225
 79, 226, 227, 258
 80, 258, 257, 226
 81, 227, 228, 259
 82, 259, 258, 227
 83, 228, 229, 260
 84, 260, 259, 228
 85, 229, 230, 261
 86, 261, 260, 229
 87, 230, 231, 262
 88, 262, 261, 230
 89, 231, 232, 263
 90, 263, 262, 231
 91, 232, 233, 264
 92, 264, 263, 232
 93, 233, 234, 265
 94, 265, 264, 233
 95, 234, 235, 266
 96, 266, 265, 234
 97, 235, 236, 267
 98, 267, 266, 235
 99, 236, 237, 268
100, 268, 267, 236
101, 237, 238, 269
102, 269, 268, 237
103, 238, 239, 270
104, 270, 269, 238
105, 239, 240, 271
106, 271, 270, 239
107, 240, 241, 272
108, 272, 271, 240
109, 241, 242, 273
110, 273, 272, 241
111, 242, 243, 274
112, 274, 273, 242
113, 243, 244, 275
114, 275, 274, 243
115, 244, 245, 276
116, 276, 275, 244
117, 245, 246, 277
118, 277, 276, 245
119, 246, 247, 278
120, 278, 277, 246
121, 247, 248, 279
122, 279, 278, 247
123, 248, 249, 280
124, 280, 279, 248
125, 249, 250, 281
126, 281, 280, 249
127, 250,  44,  45
128,  45, 281, 250
129,  95, 251, 282
130, 282,  94,  95
131, 251, 252, 283
132, 283, 282, 251
133, 252, 253, 284
134, 284, 283, 252
135, 253, 254, 285
136, 285, 284, 253
137, 254, 255, 286
138, 286, 285, 254
139, 255, 256, 287
140, 287, 286, 255
141, 256, 257, 288
142, 288, 287, 256
143, 257, 258, 289
144, 289, 288, 257
145, 258, 259, 290
146, 290, 289, 258
147, 259, 260, 291
148, 291, 290, 259
149, 260, 261, 292
150, 292, 291, 260
151, 261, 262, 293
152, 293, 292, 261
153, 262, 263, 294
154, 294, 293, 262
155, 263, 264, 295
156, 295, 294, 263
157, 264, 265, 296
158, 296, 295, 264
159, 265, 266, 297
160, 297, 296, 265
161, 266, 267, 298
162, 298, 297, 266
163, 267, 268, 299
164, 299, 298, 267
165, 268, 269, 300
166, 300, 299, 268
167, 269, 270, 301
168, 301, 300, 269
169, 270, 271, 302
170, 302, 301, 270
171, 271, 272, 303
172, 303, 302, 271
173, 272, 273, 304
174, 304, 303, 272
175, 273, 274, 305
176, 305, 304, 273
177, 274, 275, 306
178, 306, 305, 274
179, 275, 276, 307
180, 307, 306, 275
181, 276, 277, 308
182, 308, 307, 276
183, 277, 278, 309
184, 309, 308, 277
185, 278, 279, 310
186, 310, 309, 278
187, 279, 280, 311
188, 311, 310, 279
189, 280, 281, 312
190, 312, 311, 280
191, 281,  45,  46
192,  46, 312, 281
193,  94, 282, 313
194, 313,  93,  94
195, 282, 283, 314
196, 314, 313, 282
197, 283, 284, 315
198, 315, 314, 283
199, 284, 285, 316
200, 316, 315, 284
201, 285, 286, 317
202, 317, 316, 285
203, 286, 287, 318
204, 318, 317, 286
205, 287, 288, 319
206, 319, 318, 287
207, 288, 289, 320
208, 320, 319, 288
209, 289, 290, 321
210, 321, 320, 289
211, 290, 291, 322
212, 322, 321, 290
213, 291, 292, 323
214, 323, 322, 291
215, 292, 293, 324
216, 324, 323, 292
217, 293, 294, 325
218, 325, 324, 293
219, 294, 295, 326
220, 326, 325, 294
221, 295, 296, 327
222, 327, 326, 295
223, 296, 297, 328
224, 328, 327, 296
225, 297, 298, 329
226, 329, 328, 297
227, 298, 299, 330
228, 330, 329, 298
229, 299, 300, 331
230, 331, 330, 299
231, 300, 301, 332
232, 332, 331, 300
233, 301, 302, 333
234, 333, 332, 301
235, 302, 303, 334
236, 334, 333, 302
237, 303, 304, 335
238, 335, 334, 303
239, 304, 305, 336
240, 336, 335, 304
241, 305, 306, 337
242, 337, 336, 305
243, 306, 307, 338
244, 338, 337, 306
245, 307, 308, 339
246, 339, 338, 307
247, 308, 309, 340
248, 340, 339, 308
249, 309, 310, 341
250, 341, 340, 309
251, 310, 311, 342
252, 342, 341, 310
253, 311, 312, 343
254, 343, 342, 311
255, 312,  46,  47
256,  47, 343, 312
257,  93, 313, 344
258, 344,  92,  93
259, 313, 314, 345
260, 345, 344, 313
261, 314, 315, 346
262, 346, 345, 314
263, 315, 316, 347
264, 347, 346, 315
265, 316, 317, 348
266, 348, 347, 316
267, 317, 318, 349
268, 349, 348, 317
269, 318, 319, 350
270, 350, 349, 318
271, 319, 320, 351
272, 351, 350, 319
273, 320, 321, 352
274, 352, 351, 320
275, 321, 322, 353
276, 353, 352, 321
277, 322, 323, 354
278, 354, 353, 322
279, 323, 324, 355
280, 355, 354, 323
281, 324, 325, 356
282, 356, 355, 324
283, 325, 326, 357
284, 357, 356, 325
285, 326, 327, 358
286, 358, 357, 326
287, 327, 328, 359
288, 359, 358, 327
289, 328, 329, 360
290, 360, 359, 328
291, 329, 330, 361
292, 361, 360, 329
293, 330, 331, 362
294, 362, 361, 330
295, 331, 332, 363
296, 363, 362, 331
297, 332, 333, 364
298, 364, 363, 332
299, 333, 334, 365
300, 365, 364, 333
301, 334, 335, 366
302, 366, 365, 334
303, 335, 336, 367
304, 367, 366, 335
305, 336, 337, 368
306, 368, 367, 336
307, 337, 338, 369
308, 369, 368, 337
309, 338, 339, 370
310, 370, 369, 338
311, 339, 340, 371
312, 371, 370, 339
313, 340, 341, 372
314, 372, 371, 340
315, 341, 342, 373
316, 373, 372, 341
317, 342, 343, 374
318, 374, 373, 342
319, 343,  47,  48
320,  48, 374, 343
321,  92, 344, 375
322, 375,  91,  92
323, 344, 345, 376
324, 376, 375, 344
325, 345, 346, 377
326, 377, 376, 345
327, 346, 347, 378
328, 378, 377, 346
329, 347, 348, 379
330, 379, 378, 347
331, 348, 349, 380
332, 380, 379, 348
333, 349, 350, 381
334, 381, 380, 349
335, 350, 351, 382
336, 382, 381, 350
337, 351, 352, 383
338, 383, 382, 351
339, 352, 353, 384
340, 384, 383, 352
341, 353, 354, 385
342, 385, 384, 353
343, 354, 355, 386
344, 386, 385, 354
345, 355, 356, 387
346, 387, 386, 355
347, 356, 357, 388
348, 388, 387, 356
349, 357, 358, 389
350, 389, 388, 357
351, 358, 359, 390
352, 390, 389, 358
353, 359, 360, 391
354, 391, 390, 359
355, 360, 361, 392
356, 392, 391, 360
357, 361, 362, 393
358, 393, 392, 361
359, 362, 363, 394
360, 394, 393, 362
361, 363, 364, 395
362, 395, 394, 363
363, 364, 365, 396
364, 396, 395, 364
365, 365, 366, 397
366, 397, 396, 365
367, 366, 367, 398
368, 398, 397, 366
369, 367, 368, 399
370, 399, 398, 367
371, 368, 369, 400
372, 400, 399, 368
373, 369, 370, 401
374, 401, 400, 369
375, 370, 371, 402
376, 402, 401, 370
377, 371, 372, 403
378, 403, 402, 371
379, 372, 373, 404
380, 404, 403, 372
381, 373, 374, 405
382, 405, 404, 373
383, 374,  48,  49
384,  49, 405, 374
385,  91, 375, 406
386, 406,  90,  91
387, 375, 376, 407
388, 407, 406, 375
389, 376, 377, 408
390, 408, 407, 376
391, 377, 378, 409
392, 409, 408, 377
393, 378, 379, 410
394, 410, 409, 378
395, 379, 380, 411
396, 411, 410, 379
397, 380, 381, 412
398, 412, 411, 380
399, 381, 382, 413
400, 413, 412, 381
401, 382, 383, 414
402, 414, 413, 382
403, 383, 384, 415
404, 415, 414, 383
405, 384, 385, 416
406, 416, 415, 384
407, 385, 386, 417
408, 417, 416, 385
409, 386, 387, 418
410, 418, 417, 386
411, 387, 388, 419
412, 419, 418, 387
413, 388, 389, 420
414, 420, 419, 388
415, 389, 390, 421
416, 421, 420, 389
417, 390, 391, 422
418, 422, 421, 390
419, 391, 392, 423
420, 423, 422, 391
421, 392, 393, 424
422, 424, 423, 392
423, 393, 394, 425
424, 425, 424, 393
425, 394, 395, 426
426, 426, 425, 394
427, 395, 396, 427
428, 427, 426, 395
429, 396, 397, 428
430, 428, 427, 396
431, 397, 398, 429
432, 429, 428, 397
433, 398, 399, 430
434, 430, 429, 398
435, 399, 400, 431
436, 431, 430, 399
437, 400, 401, 432
438, 432, 431, 400
439, 401, 402, 433
440, 433, 432, 401
441, 402, 403, 434
442, 434, 433, 402
443, 403, 404, 435
444, 435, 434, 403
445, 404, 405, 436
446, 436, 435, 404
447, 405,  49,  50
448,  50, 436, 405
449,  90, 406, 437
450, 437,  89,  90
451, 406, 407, 438
452, 438, 437, 406
453, 407, 408, 439
454, 439, 438, 407
455, 408, 409, 440
456, 440, 439, 408
457, 409, 410, 441
458, 441, 440, 409
459, 410, 411, 442
460, 442, 441, 410
461, 411, 412, 443
462, 443, 442, 411
463, 412, 413, 444
464, 444, 443, 412
465, 413, 414, 445
466, 445, 444, 413
467, 414, 415, 446
468, 446, 445, 414
469, 415, 416, 447
470, 447, 446, 415
471, 416, 417, 448
472, 448, 447, 416
473, 417, 418, 449
474, 449, 448, 417
475, 418, 419, 450
476, 450, 449, 418
477, 419, 420, 451
478, 451, 450, 419
479, 420, 421, 452
480, 452, 451, 420
481, 421, 422, 453
482, 453, 452, 421
483, 422, 423, 454
484, 454, 453, 422
485, 423, 424, 455
486, 455, 454, 423
487, 424, 425, 456
488, 456, 455, 424
489, 425, 426, 457
490, 457, 456, 425
491, 426, 427, 458
492, 458, 457, 426
493, 427, 428, 459
494, 459, 458, 427
495, 428, 429, 460
496, 460, 459, 428
497, 429, 430, 461
498, 461, 460, 429
499, 430, 431, 462
500, 462, 461, 430
501, 431, 432, 463
502, 463, 462, 431
503, 432, 433, 464
504, 464, 463, 432
505, 433, 434, 465
506, 465, 464, 433
507, 434, 435, 466
508, 466, 465, 434
509, 435, 436, 467
510, 467, 466, 435
511, 436,  50,  51
512,  51, 467, 436
513,  89, 437, 468
514, 468,  88,  89
515, 437, 438, 469
516, 469, 468, 437
517, 438, 439, 470
518, 470, 469, 438
519, 439, 440, 471
520, 471, 470, 439
521, 440, 441, 472
522, 472, 471, 440
523, 441, 442, 473
524, 473, 472, 441
525, 442, 443, 474
526, 474, 473, 442
527, 443, 444, 475
528, 475, 474, 443
529, 444, 445, 476
530, 476, 475, 444
531, 445, 446, 477
532, 477, 476, 445
533, 446, 447, 478
534, 478, 477, 446
535, 447, 448, 479
536, 479, 478, 447
537, 448, 449, 480
538, 480, 479, 448
539, 449, 450, 481
540, 481, 480, 449
541, 450, 451, 482
542, 482, 481, 450
543, 451, 452, 483
544, 483, 482, 451
545, 452, 453, 484
546, 484, 483, 452
547, 453, 454, 485
548, 485, 484, 453
549, 454, 455, 486
550, 486, 485, 454
551, 455, 456, 487
552, 487, 486, 455
553, 456, 457, 488
554, 488, 487, 456
555, 457, 458, 489
556, 489, 488, 457
557, 458, 459, 490
558, 490, 489, 458
559, 459, 460, 491
560, 491, 490, 459
561, 460, 461, 492
562, 492, 491, 460
563, 461, 462, 493
564, 493, 492, 461
565, 462, 463, 494
566, 494, 493, 462
567, 463, 464, 495
568, 495, 494, 463
569, 464, 465, 496
570, 496, 495, 464
571, 465, 466, 497
572, 497, 496, 465
573, 466, 467, 498
574, 498, 497, 466
575, 467,  51,  52
576,  52, 498, 467
577,  88, 468, 499
578, 499,  87,  88
579, 468, 469, 500
580, 500, 499, 468
581, 469, 470, 501
582, 501, 500, 469
583, 470, 471, 502
584, 502, 501, 470
585, 471, 472, 503
586, 503, 502, 471
587, 472, 473, 504
588, 504, 503, 472
589, 473, 474, 505
590, 505, 504, 473
591, 474, 475, 506
592, 506, 505, 474
593, 475, 476, 507
594, 507, 506, 475
595, 476, 477, 508
596, 508, 507, 476
597, 477, 478, 509
598, 509, 508, 477
599, 478, 479, 510
600, 510, 509, 478
601, 479, 480, 511
602, 511, 510, 479
603, 480, 481, 512
604, 512, 511, 480
605, 481, 482, 513
606, 513, 512, 481
607, 482, 483, 514
608, 514, 513, 482
609, 483, 484, 515
610, 515, 514, 483
611, 484, 485, 516
612, 516, 515, 484
613, 485, 486, 517
614, 517, 516, 485
615, 486, 487, 518
616, 518, 517, 486
617, 487, 488, 519
618, 519, 518, 487
619, 488, 489, 520
620, 520, 519, 488
621, 489, 490, 521
622, 521, 520, 489
623, 490, 491, 522
624, 522, 521, 490
625, 491, 492, 523
626, 523, 522, 491
627, 492, 493, 524
628, 524, 523, 492
629, 493, 494, 525
630, 525, 524, 493
631, 494, 495, 526
632, 526, 525, 494
633, 495, 496, 527
634, 527, 526, 495
635, 496, 497, 528
636, 528, 527, 496
637, 497, 498, 529
638, 529, 528, 497
639, 498,  52,  53
640,  53, 529, 498
641,  87, 499, 530
642, 530,  86,  87
643, 499, 500, 531
644, 531, 530, 499
645, 500, 501, 532
646, 532, 531, 500
647, 501, 502, 533
648, 533, 532, 501
649, 502, 503, 534
650, 534, 533, 502
651, 503, 504, 535
652, 535, 534, 503
653, 504, 505, 536
654, 536, 535, 504
655, 505, 506, 537
656, 537, 536, 505
657, 506, 507, 538
658, 538, 537, 506
659, 507, 508, 539
660, 539, 538, 507
661, 508, 509, 540
662, 540, 539, 508
663, 509, 510, 541
664, 541, 540, 509
665, 510, 511, 542
666, 542, 541, 510
667, 511, 512, 543
668, 543, 542, 511
669, 512, 513, 544
670, 544, 543, 512
671, 513, 514, 545
672, 545, 544, 513
673, 514, 515, 546
674, 546, 545, 514
675, 515, 516, 547
676, 547, 546, 515
677, 516, 517, 548
678, 548, 547, 516
679, 517, 518, 549
680, 549, 548, 517
681, 518, 519, 550
682, 550, 549, 518
683, 519, 520, 551
684, 551, 550, 519
685, 520, 521, 552
686, 552, 551, 520
687, 521, 522, 553
688, 553, 552, 521
689, 522, 523, 554
690, 554, 553, 522
691, 523, 524, 555
692, 555, 554, 523
693, 524, 525, 556
694, 556, 555, 524
695, 525, 526, 557
696, 557, 556, 525
697, 526, 527, 558
698, 558, 557, 526
699, 527, 528, 559
700, 559, 558, 527
701, 528, 529, 560
702, 560, 559, 528
703, 529,  53,  54
704,  54, 560, 529
705,  86, 530,  85
706,  85,   4,  86
707, 530, 531,  84
708,  84,  85, 530
709, 531, 532,  83
710,  83,  84, 531
711, 532, 533,  82
712,  82,  83, 532
713, 533, 534,  81
714,  81,  82, 533
715, 534, 535,  80
716,  80,  81, 534
717, 535, 536,  79
718,  79,  80, 535
719, 536, 537,  78
720,  78,  79, 536
721, 537, 538,  77
722,  77,  78, 537
723, 538, 539,  76
724,  76,  77, 538
725, 539, 540,  75
726,  75,  76, 539
727, 540, 541,  74
728,  74,  75, 540
729, 541, 542,  73
730,  73,  74, 541
731, 542, 543,  72
732,  72,  73, 542
733, 543, 544,  71
734,  71,  72, 543
735, 544, 545,  70
736,  70,  71, 544
737, 545, 546,  69
738,  69,  70, 545
739, 546, 547,  68
740,  68,  69, 546
741, 547, 548,  67
742,  67,  68, 547
743, 548, 549,  66
744,  66,  67, 548
745, 549, 550,  65
746,  65,  66, 549
747, 550, 551,  64
748,  64,  65, 550
749, 551, 552,  63
750,  63,  64, 551
751, 552, 553,  62
752,  62,  63, 552
753, 553, 554,  61
754,  61,  62, 553
755, 554, 555,  60
756,  60,  61, 554
757, 555, 556,  59
758,  59,  60, 555
759, 556, 557,  58
760,  58,  59, 556
761, 557, 558,  57
762,  57,  58, 557
763, 558, 559,  56
764,  56,  57, 558
765, 559, 560,  55
766,  55,  56, 559
767, 560,  54,   3
768,   3,  55, 560
 769,   5,  97, 561
 770, 561, 180,   5
 771,  97,  98, 562
 772, 562, 561,  97
 773,  98,  99, 563
 774, 563, 562,  98
 775,  99, 100, 564
 776, 564, 563,  99
 777, 100, 101, 565
 778, 565, 564, 100
 779, 101, 102, 566
 780, 566, 565, 101
 781, 102, 103, 567
 782, 567, 566, 102
 783, 103, 104, 568
 784, 568, 567, 103
 785, 104, 105, 569
 786, 569, 568, 104
 787, 105, 106, 570
 788, 570, 569, 105
 789, 106, 107, 571
 790, 571, 570, 106
 791, 107, 108, 572
 792, 572, 571, 107
 793, 108, 109, 573
 794, 573, 572, 108
 795, 109, 110, 574
 796, 574, 573, 109
 797, 110, 111, 575
 798, 575, 574, 110
 799, 111, 112, 576
 800, 576, 575, 111
 801, 112, 113, 577
 802, 577, 576, 112
 803, 113, 114, 578
 804, 578, 577, 113
 805, 114, 115, 579
 806, 579, 578, 114
 807, 115, 116, 580
 808, 580, 579, 115
 809, 116, 117, 581
 810, 581, 580, 116
 811, 117, 118, 582
 812, 582, 581, 117
 813, 118, 119, 583
 814, 583, 582, 118
 815, 119, 120, 584
 816, 584, 583, 119
 817, 120, 121, 585
 818, 585, 584, 120
 819, 121, 122, 586
 820, 586, 585, 121
 821, 122, 123, 587
 822, 587, 586, 122
 823, 123, 124, 588
 824, 588, 587, 123
 825, 124, 125, 589
 826, 589, 588, 124
 827, 125, 126, 590
 828, 590, 589, 125
 829, 126, 127, 591
 830, 591, 590, 126
 831, 127,   6, 128
 832, 128, 591, 127
 833, 180, 561, 592
 834, 592, 179, 180
 835, 561, 562, 593
 836, 593, 592, 561
 837, 562, 563, 594
 838, 594, 593, 562
 839, 563, 564, 595
 840, 595, 594, 563
 841, 564, 565, 596
 842, 596, 595, 564
 843, 565, 566, 597
 844, 597, 596, 565
 845, 566, 567, 598
 846, 598, 597, 566
 847, 567, 568, 599
 848, 599, 598, 567
 849, 568, 569, 600
 850, 600, 599, 568
 851, 569, 570, 601
 852, 601, 600, 569
 853, 570, 571, 602
 854, 602, 601, 570
 855, 571, 572, 603
 856, 603, 602, 571
 857, 572, 573, 604
 858, 604, 603, 572
 859, 573, 574, 605
 860, 605, 604, 573
 861, 574, 575, 606
 862, 606, 605, 574
 863, 575, 576, 607
 864, 607, 606, 575
 865, 576, 577, 608
 866, 608, 607, 576
 867, 577, 578, 609
 868, 609, 608, 577
 869, 578, 579, 610
 870, 610, 609, 578
 871, 579, 580, 611
 872, 611, 610, 579
 873, 580, 581, 612
 874, 612, 611, 580
 875, 581, 582, 613
 876, 613, 612, 581
 877, 582, 583, 614
 878, 614, 613, 582
 879, 583, 584, 615
 880, 615, 614, 583
 881, 584, 585, 616
 882, 616, 615, 584
 883, 585, 586, 617
 884, 617, 616, 585
 885, 586, 587, 618
 886, 618, 617, 586
 887, 587, 588, 619
 888, 619, 618, 587
 889, 588, 589, 620
 890, 620, 619, 588
 891, 589, 590, 621
 892, 621, 620, 589
 893, 590, 591, 622
 894, 622, 621, 590
 895, 591, 128, 129
 896, 129, 622, 591
 897, 179, 592, 623
 898, 623, 178, 179
 899, 592, 593, 624
 900, 624, 623, 592
 901, 593, 594, 625
 902, 625, 624, 593
 903, 594, 595, 626
 904, 626, 625, 594
 905, 595, 596, 627
 906, 627, 626, 595
 907, 596, 597, 628
 908, 628, 627, 596
 909, 597, 598, 629
 910, 629, 628, 597
 911, 598, 599, 630
 912, 630, 629, 598
 913, 599, 600, 631
 914, 631, 630, 599
 915, 600, 601, 632
 916, 632, 631, 600
 917, 601, 602, 633
 918, 633, 632, 601
 919, 602, 603, 634
 920, 634, 633, 602
 921, 603, 604, 635
 922, 635, 634, 603
 923, 604, 605, 636
 924, 636, 635, 604
 925, 605, 606, 637
 926, 637, 636, 605
 927, 606, 607, 638
 928, 638, 637, 606
 929, 607, 608, 639
 930, 639, 638, 607
 931, 608, 609, 640
 932, 640, 639, 608
 933, 609, 610, 641
 934, 641, 640, 609
 935, 610, 611, 642
 936, 642, 641, 610
 937, 611, 612, 643
 938, 643, 642, 611
 939, 612, 613, 644
 940, 644, 643, 612
 941, 613, 614, 645
 942, 645, 644, 613
 943, 614, 615, 646
 944, 646, 645, 614
 945, 615, 616, 647
 946, 647, 646, 615
 947, 616, 617, 648
 948, 648, 647, 616
 949, 617, 618, 649
 950, 649, 648, 617
 951, 618, 619, 650
 952, 650, 649, 618
 953, 619, 620, 651
 954, 651, 650, 619
 955, 620, 621, 652
 956, 652, 651, 620
 957, 621, 622, 653
 958, 653, 652, 621
 959, 622, 129, 130
 960, 130, 653, 622
 961, 178, 623, 654
 962, 654, 177, 178
 963, 623, 624, 655
 964, 655, 654, 623
 965, 624, 625, 656
 966, 656, 655, 624
 967, 625, 626, 657
 968, 657, 656, 625
 969, 626, 627, 658
 970, 658, 657, 626
 971, 627, 628, 659
 972, 659, 658, 627
 973, 628, 629, 660
 974, 660, 659, 628
 975, 629, 630, 661
 976, 661, 660, 629
 977, 630, 631, 662
 978, 662, 661, 630
 979, 631, 632, 663
 980, 663, 662, 631
 981, 632, 633, 664
 982, 664, 663, 632
 983, 633, 634, 665
 984, 665, 664, 633
 985, 634, 635, 666
 986, 666, 665, 634
 987, 635, 636, 667
 988, 667, 666, 635
 989, 636, 637, 668
 990, 668, 667, 636
 991, 637, 638, 669
 992, 669, 668, 637
 993, 638, 639, 670
 994, 670, 669, 638
 995, 639, 640, 671
 996, 671, 670, 639
 997, 640, 641, 672
 998, 672, 671, 640
 999, 641, 642, 673
1000, 673, 672, 641
1001, 642, 643, 674
1002, 674, 673, 642
1003, 643, 644, 675
1004, 675, 674, 643
1005, 644, 645, 676
1006, 676, 675, 644
1007, 645, 646, 677
1008, 677, 676, 645
1009, 646, 647, 678
1010, 678, 677, 646
1011, 647, 648, 679
1012, 679, 678, 647
1013, 648, 649, 680
1014, 680, 679, 648
1015, 649, 650, 681
1016, 681, 680, 649
1017, 650, 651, 682
1018, 682, 681, 650
1019, 651, 652, 683
1020, 683, 682, 651
1021, 652, 653, 684
1022, 684, 683, 652
1023, 653, 130, 131
1024, 131, 684, 653
1025, 177, 654, 685
1026, 685, 176, 177
1027, 654, 655, 686
1028, 686, 685, 654
1029, 655, 656, 687
1030, 687, 686, 655
1031, 656, 657, 688
1032, 688, 687, 656
1033, 657, 658, 689
1034, 689, 688, 657
1035, 658, 659, 690
1036, 690, 689, 658
1037, 659, 660, 691
1038, 691, 690, 659
1039, 660, 661, 692
1040, 692, 691, 660
1041, 661, 662, 693
1042, 693, 692, 661
1043, 662, 663, 694
1044, 694, 693, 662
1045, 663, 664, 695
1046, 695, 694, 663
1047, 664, 665, 696
1048, 696, 695, 664
1049, 665, 666, 697
1050, 697, 696, 665
1051, 666, 667, 698
1052, 698, 697, 666
1053, 667, 668, 699
1054, 699, 698, 667
1055, 668, 669, 700
1056, 700, 699, 668
1057, 669, 670, 701
1058, 701, 700, 669
1059, 670, 671, 702
1060, 702, 701, 670
1061, 671, 672, 703
1062, 703, 702, 671
1063, 672, 673, 704
1064, 704, 703, 672
1065, 673, 674, 705
1066, 705, 704, 673
1067, 674, 675, 706
1068, 706, 705, 674
1069, 675, 676, 707
1070, 707, 706, 675
1071, 676, 677, 708
1072, 708, 707, 676
1073, 677, 678, 709
1074, 709, 708, 677
1075, 678, 679, 710
1076, 710, 709, 678
1077, 679, 680, 711
1078, 711, 710, 679
1079, 680, 681, 712
1080, 712, 711, 680
1081, 681, 682, 713
1082, 713, 712, 681
1083, 682, 683, 714
1084, 714, 713, 682
1085, 683, 684, 715
1086, 715, 714, 683
1087, 684, 131, 132
1088, 132, 715, 684
1089, 176, 685, 716
1090, 716, 175, 176
1091, 685, 686, 717
1092, 717, 716, 685
1093, 686, 687, 718
1094, 718, 717, 686
1095, 687, 688, 719
1096, 719, 718, 687
1097, 688, 689, 720
1098, 720, 719, 688
1099, 689, 690, 721
1100, 721, 720, 689
1101, 690, 691, 722
1102, 722, 721, 690
1103, 691, 692, 723
1104, 723, 722, 691
1105, 692, 693, 724
1106, 724, 723, 692
1107, 693, 694, 725
1108, 725, 724, 693
1109, 694, 695, 726
1110, 726, 725, 694
1111, 695, 696, 727
1112, 727, 726, 695
1113, 696, 697, 728
1114, 728, 727, 696
1115, 697, 698, 729
1116, 729, 728, 697
1117, 698, 699, 730
1118, 730, 729, 698
1119, 699, 700, 731
1120, 731, 730, 699
1121, 700, 701, 732
1122, 732, 731, 700
1123, 701, 702, 733
1124, 733, 732, 701
1125, 702, 703, 734
1126, 734, 733, 702
1127, 703, 704, 735
1128, 735, 734, 703
1129, 704, 705, 736
1130, 736, 735, 704
1131, 705, 706, 737
1132, 737, 736, 705
1133, 706, 707, 738
1134, 738, 737, 706
1135, 707, 708, 739
1136, 739, 738, 707
1137, 708, 709, 740
1138, 740, 739, 708
1139, 709, 710, 741
1140, 741, 740, 709
1141, 710, 711, 742
1142, 742, 741, 710
1143, 711, 712, 743
1144, 743, 742, 711
1145, 712, 713, 744
1146, 744, 743, 712
1147, 713, 714, 745
1148, 745, 744, 713
1149, 714, 715, 746
1150, 746, 745, 714
1151, 715, 132, 133
1152, 133, 746, 715
1153, 175, 716, 747
1154, 747, 174, 175
1155, 716, 717, 748
1156, 748, 747, 716
1157, 717, 718, 749
1158, 749, 748, 717
1159, 718, 719, 750
1160, 750, 749, 718
1161, 719, 720, 751
1162, 751, 750, 719
1163, 720, 721, 752
1164, 752, 751, 720
1165, 721, 722, 753
1166, 753, 752, 721
1167, 722, 723, 754
1168, 754, 753, 722
1169, 723, 724, 755
1170, 755, 754, 723
1171, 724, 725, 756
1172, 756, 755, 724
1173, 725, 726, 757
1174, 757, 756, 725
1175, 726, 727, 758
1176, 758, 757, 726
1177, 727, 728, 759
1178, 759, 758, 727
1179, 728, 729, 760
1180, 760, 759, 728
1181, 729, 730, 761
1182, 761, 760, 729
1183, 730, 731, 762
1184, 762, 761, 730
1185, 731, 732, 763
1186, 763, 762, 731
1187, 732, 733, 764
1188, 764, 763, 732
1189, 733, 734, 765
1190, 765, 764, 733
1191, 734, 735, 766
1192, 766, 765, 734
1193, 735, 736, 767
1194, 767, 766, 735
1195, 736, 737, 768
1196, 768, 767, 736
1197, 737, 738, 769
1198, 769, 768, 737
1199, 738, 739, 770
1200, 770, 769, 738
1201, 739, 740, 771
1202, 771, 770, 739
1203, 740, 741, 772
1204, 772, 771, 740
1205, 741, 742, 773
1206, 773, 772, 741
1207, 742, 743, 774
1208, 774, 773, 742
1209, 743, 744, 775
1210, 775, 774, 743
1211, 744, 745, 776
1212, 776, 775, 744
1213, 745, 746, 777
1214, 777, 776, 745
1215, 746, 133, 134
1216, 134, 777, 746
1217, 174, 747, 778
1218, 778, 173, 174
1219, 747, 748, 779
1220, 779, 778, 747
1221, 748, 749, 780
1222, 780, 779, 748
1223, 749, 750, 781
1224, 781, 780, 749
1225, 750, 751, 782
1226, 782, 781, 750
1227, 751, 752, 783
1228, 783, 782, 751
1229, 752, 753, 784
1230, 784, 783, 752
1231, 753, 754, 785
1232, 785, 784, 753
1233, 754, 755, 786
1234, 786, 785, 754
1235, 755, 756, 787
1236, 787, 786, 755
1237, 756, 757, 788
1238, 788, 787, 756
1239, 757, 758, 789
1240, 789, 788, 757
1241, 758, 759, 790
1242, 790, 789, 758
1243, 759, 760, 791
1244, 791, 790, 759
1245, 760, 761, 792
1246, 792, 791, 760
1247, 761, 762, 793
1248, 793, 792, 761
1249, 762, 763, 794
1250, 794, 793, 762
1251, 763, 764, 795
1252, 795, 794, 763
1253, 764, 765, 796
1254, 796, 795, 764
1255, 765, 766, 797
1256, 797, 796, 765
1257, 766, 767, 798
1258, 798, 797, 766
1259, 767, 768, 799
1260, 799, 798, 767
1261, 768, 769, 800
1262, 800, 799, 768
1263, 769, 770, 801
1264, 801, 800, 769
1265, 770, 771, 802
1266, 802, 801, 770
1267, 771, 772, 803
1268, 803, 802, 771
1269, 772, 773, 804
1270, 804, 803, 772
1271, 773, 774, 805
1272, 805, 804, 773
1273, 774, 775, 806
1274, 806, 805, 774
1275, 775, 776, 807
1276, 807, 806, 775
1277, 776, 777, 808
1278, 808, 807, 776
1279, 777, 134, 135
1280, 135, 808, 777
1281, 173, 778, 809
1282, 809, 172, 173
1283, 778, 779, 810
1284, 810, 809, 778
1285, 779, 780, 811
1286, 811, 810, 779
1287, 780, 781, 812
1288, 812, 811, 780
1289, 781, 782, 813
1290, 813, 812, 781
1291, 782, 783, 814
1292, 814, 813, 782
1293, 783, 784, 815
1294, 815, 814, 783
1295, 784, 785, 816
1296, 816, 815, 784
1297, 785, 786, 817
1298, 817, 816, 785
1299, 786, 787, 818
1300, 818, 817, 786
1301, 787, 788, 819
1302, 819, 818, 787
1303, 788, 789, 820
1304, 820, 819, 788
1305, 789, 790, 821
1306, 821, 820, 789
1307, 790, 791, 822
1308, 822, 821, 790
1309, 791, 792, 823
1310, 823, 822, 791
1311, 792, 793, 824
1312, 824, 823, 792
1313, 793, 794, 825
1314, 825, 824, 793
1315, 794, 795, 826
1316, 826, 825, 794
1317, 795, 796, 827
1318, 827, 826, 795
1319, 796, 797, 828
1320, 828, 827, 796
1321, 797, 798, 829
1322, 829, 828, 797
1323, 798, 799, 830
1324, 830, 829, 798
1325, 799, 800, 831
1326, 831, 830, 799
1327, 800, 801, 832
1328, 832, 831, 800
1329, 801, 802, 833
1330, 833, 832, 801
1331, 802, 803, 834
1332, 834, 833, 802
1333, 803, 804, 835
1334, 835, 834, 803
1335, 804, 805, 836
1336, 836, 835, 804
1337, 805, 806, 837
1338, 837, 836, 805
1339, 806, 807, 838
1340, 838, 837, 806
1341, 807, 808, 839
1342, 839, 838, 807
1343, 808, 135, 136
1344, 136, 839, 808
1345, 172, 809, 840
1346, 840, 171, 172
1347, 809, 810, 841
1348, 841, 840, 809
1349, 810, 811, 842
1350, 842, 841, 810
1351, 811, 812, 843
1352, 843, 842, 811
1353, 812, 813, 844
1354, 844, 843, 812
1355, 813, 814, 845
1356, 845, 844, 813
1357, 814, 815, 846
1358, 846, 845, 814
1359, 815, 816, 847
1360, 847, 846, 815
1361, 816, 817, 848
1362, 848, 847, 816
1363, 817, 818, 849
1364, 849, 848, 817
1365, 818, 819, 850
1366, 850, 849, 818
1367, 819, 820, 851
1368, 851, 850, 819
1369, 820, 821, 852
1370, 852, 851, 820
1371, 821, 822, 853
1372, 853, 852, 821
1373, 822, 823, 854
1374, 854, 853, 822
1375, 823, 824, 855
1376, 855, 854, 823
1377, 824, 825, 856
1378, 856, 855, 824
1379, 825, 826, 857
1380, 857, 856, 825
1381, 826, 827, 858
1382, 858, 857, 826
1383, 827, 828, 859
1384, 859, 858, 827
1385, 828, 829, 860
1386, 860, 859, 828
1387, 829, 830, 861
1388, 861, 860, 829
1389, 830, 831, 862
1390, 862, 861, 830
1391, 831, 832, 863
1392, 863, 862, 831
1393, 832, 833, 864
1394, 864, 863, 832
1395, 833, 834, 865
1396, 865, 864, 833
1397, 834, 835, 866
1398, 866, 865, 834
1399, 835, 836, 867
1400, 867, 866, 835
1401, 836, 837, 868
1402, 868, 867, 836
1403, 837, 838, 869
1404, 869, 868, 837
1405, 838, 839, 870
1406, 870, 869, 838
1407, 839, 136, 137
1408, 137, 870, 839
1409, 171, 840, 871
1410, 871, 170, 171
1411, 840, 841, 872
1412, 872, 871, 840
1413, 841, 842, 873
1414, 873, 872, 841
1415, 842, 843, 874
1416, 874, 873, 842
1417, 843, 844, 875
1418, 875, 874, 843
1419, 844, 845, 876
1420, 876, 875, 844
1421, 845, 846, 877
1422, 877, 876, 845
1423, 846, 847, 878
1424, 878, 877, 846
1425, 847, 848, 879
1426, 879, 878, 847
1427, 848, 849, 880
1428, 880, 879, 848
1429, 849, 850, 881
1430, 881, 880, 849
1431, 850, 851, 882
1432, 882, 881, 850
1433, 851, 852, 883
1434, 883, 882, 851
1435, 852, 853, 884
1436, 884, 883, 852
1437, 853, 854, 885
1438, 885, 884, 853
1439, 854, 855, 886
1440, 886, 885, 854
1441, 855, 856, 887
1442, 887, 886, 855
1443, 856, 857, 888
1444, 888, 887, 856
1445, 857, 858, 889
1446, 889, 888, 857
1447, 858, 859, 890
1448, 890, 889, 858
1449, 859, 860, 891
1450, 891, 890, 859
1451, 860, 861, 892
1452, 892, 891, 860
1453, 861, 862, 893
1454, 893, 892, 861
1455, 862, 863, 894
1456, 894, 893, 862
1457, 863, 864, 895
1458, 895, 894, 863
1459, 864, 865, 896
1460, 896, 895, 864
1461, 865, 866, 897
1462, 897, 896, 865
1463, 866, 867, 898
1464, 898, 897, 866
1465, 867, 868, 899
1466, 899, 898, 867
1467, 868, 869, 900
1468, 900, 899, 868
1469, 869, 870, 901
1470, 901, 900, 869
1471, 870, 137, 138
1472, 138, 901, 870
1473, 170, 871, 169
1474, 169,   8, 170
1475, 871, 872, 168
1476, 168, 169, 871
1477, 872, 873, 167
1478, 167, 168, 872
1479, 873, 874, 166
1480, 166, 167, 873
1481, 874, 875, 165
1482, 165, 166, 874
1483, 875, 876, 164
1484, 164, 165, 875
1485, 876, 877, 163
1486, 163, 164, 876
1487, 877, 878, 162
1488, 162, 163, 877
1489, 878, 879, 161
1490, 161, 162, 878
1491, 879, 880, 160
1492, 160, 161, 879
1493, 880, 881, 159
1494, 159, 160, 880
1495, 881, 882, 158
1496, 158, 159, 881
1497, 882, 883, 157
1498, 157, 158, 882
1499, 883, 884, 156
1500, 156, 157, 883
1501, 884, 885, 155
1502, 155, 156, 884
1503, 885, 886, 154
1504, 154, 155, 885
1505, 886, 887, 153
1506, 153, 154, 886
1507, 887, 888, 152
1508, 152, 153, 887
1509, 888, 889, 151
1510, 151, 152, 888
1511, 889, 890, 150
1512, 150, 151, 889
1513, 890, 891, 149
1514, 149, 150, 890
1515, 891, 892, 148
1516, 148, 149, 891
1517, 892, 893, 147
1518, 147, 148, 892
1519, 893, 894, 146
1520, 146, 147, 893
1521, 894, 895, 145
1522, 145, 146, 894
1523, 895, 896, 144
1524, 144, 145, 895
1525, 896, 897, 143
1526, 143, 144, 896
1527, 897, 898, 142
1528, 142, 143, 897
1529, 898, 899, 141
1530, 141, 142, 898
1531, 899, 900, 140
1532, 140, 141, 899
1533, 900, 901, 139
1534, 139, 140, 900
1535, 901, 138,   7
1536,   7, 139, 901
1537,  983,  979,  212
1538,  903,  214,  215
1539, 1018, 1017,  913
1540, 1261, 1206,  973
1541,  943,   37,   36
1542,  966,   17,   16
1543,  985,  909,  910
1544, 1057,  972, 1056
1545,  980,  209,  972
1546,  980,  973,  208
1547,  917,  916,  123
1548,  918,  917,  122
1549,  919,  918,  121
1550,  920,  119,  913
1551,  921,  913,  118
1552, 1072, 1070,  921
1553, 1078,  115,  995
1554,  995,  115,  114
1555,  996,  113,  922
1556,  922,  113,  112
1557, 1037, 1036,  948
1558,  926,  924,  105
1559,  925,   38,  914
1560,  929,  926,  104
1561, 1029,  937,  938
1562,  927,   39,  925
1563,  991,  195,  941
1564, 1168, 1076, 1089
1565,  999,  925,  914
1566, 1096, 1033, 1035
1567,  930,  929,  103
1568,  931,  930,  102
1569,  932,  931,  101
1570,  933,  932,  100
1571,  934,  933,   99
1572,  935,   97,  181
1573,   97,    5,  181
1574,  935,  934,   98
1575, 1074,  184, 1026
1576, 1027,  933,  934
1577, 1073,  186, 1002
1578, 1073, 1026,  185
1579, 1115, 1024, 1077
1580, 1090, 1025, 1001
1581,  936,  188,  189
1582,  937,  936,  189
1583,  938,  937,  190
1584,  939,   40,  927
1585,  940,   41,  939
1586, 1032,  991,  941
1587,  941,  195,   43
1588,   43,  195,    2
1589,  942,  106,  924
1590, 1033, 1013,  943
1591,  944,  107,  942
1592,  947,  945,   35
1593, 1098, 1097, 1036
1594,  948,  947,   34
1595,  950,  948,   33
1596,  949,  110,  923
1597,  952,  950,   32
1598, 1117, 1006, 1113
1599,  953,  952,   31
1600, 1007,  949, 1006
1601,  954,  953,   30
1602,  955,  954,   29
1603,  956,  955,   28
1604, 1130,  996, 1071
1605,  958,  957,   26
1606,  959,  958,   25
1607,  960,  959,   24
1608,  961,  960,   23
1609,  962,  961,   22
1610, 1063,  982,  902
1611,  963,  962,   21
1612,  964,  963,   20
1613,  965,   18,  915
1614,  966,  915,   17
1615,  967,  966,   16
1616,  989,  906,  907
1617, 1009,  984,  904
1618,  984,  969,   13
1619,   13,    1,  196
1620,  984,  196,  197
1621,  904,  197,  198
1622,  905,  904,  198
1623,  906,  905,  199
1624,  907,  906,  200
1625,  908,  202,  203
1626,  202,    9,  203
1627,  908,  907,  201
1628,  976,  205,  206
1629,  977,  976,  206
1630, 1260, 1197, 1200
1631, 1058, 1054,  977
1632,  970,  124,  916
1633, 1068,  985, 1066
1634,  978,  972,  210
1635,  983,  213,  214
1636,  213,  212,   12
1637,  909,  215,  216
1638,  909,  903,  215
1639,  910,  909,  216
1640,  911,  910,  217
1641,  912,  911,  218
1642,  912,  219,  127
1643,  219,    6,  127
1644,  957,  956,   27
1645,  902,   10,   11
1646, 1056,  978, 1055
1647, 1055,  983,  903
1648,  968,  967,   15
1649,  905,  198,  199
1650,  906,  199,  200
1651,  977,  207,  974
1652,  907,  200,  201
1653, 1134, 1053,  976
1654,  908,  201,  202
1655,  975,  908,  203
1656,  975,  203,  204
1657, 1053,  204,  205
1658,  910,  216,  217
1659,  987,  985,  910
1660,  911,  217,  218
1661, 1011,  916,  994
1662,  912,  218,  219
1663, 1203, 1135, 1056
1664, 1133,  127,  126
1665,  971,  125,  970
1666,  913,  119,  118
1667,  921,  118,  117
1668, 1082, 1013, 1079
1669,  914,   38,   37
1670, 1103, 1049, 1050
1671,  915,   18,   17
1672,  916,  124,  123
1673,  917,  123,  122
1674,  918,  122,  121
1675, 1015,  994,  917
1676,  919,  121,  120
1677, 1016,  919,  993
1678,  920,  919,  120
1679, 1017,  993,  920
1680,  920,  120,  119
1681, 1148, 1146, 1122
1682, 1072,  117,  116
1683, 1255, 1147, 1218
1684,  951,  112,  111
1685, 1124, 1121, 1019
1686,  923,  110,  109
1687,  946,  109,  108
1688,  924,  106,  105
1689,  926,  105,  104
1690, 1021,  192,  193
1691,  925,   39,   38
1692,  929,  104,  103
1693, 1020,  926, 1000
1694, 1021,  193,  928
1695,  927,   40,   39
1696,  928,  193,  194
1697, 1022,  940,  939
1698,  930,  103,  102
1699, 1025, 1003,  931
1700,  931,  102,  101
1701, 1024,  188,  936
1702,  932,  101,  100
1703, 1001,  932,  933
1704,  933,  100,   99
1705, 1026,  184,  185
1706,  934,   99,   98
1707, 1157, 1131, 1062
1708,  935,   98,   97
1709, 1131, 1091, 1027
1710, 1262,  181,  182
1711, 1028,  182,  183
1712,  937,  189,  190
1713,  998,  936,  937
1714,  938,  190,  191
1715, 1075, 1029,  938
1716,  992,  191,  192
1717, 1030,  925,  999
1718,  939,   41,   40
1719, 1284, 1239, 1243
1720, 1032,  941,  940
1721,  940,   42,   41
1722,  941,   43,   42
1723,  941,   42,  940
1724,  945,  943,   36
1725,  942,  107,  106
1726,  943,  914,   37
1727,  945,   36,   35
1728,  946,  108,  944
1729,  944,  108,  107
1730,  947,   35,   34
1731, 1035, 1033,  945
1732, 1034,  946,  997
1733,  946,  923,  109
1734,  948,   34,   33
1735, 1036, 1035,  947
1736,  950,   33,   32
1737, 1084, 1005, 1081
1738,  951,  111,  949
1739,  949,  111,  110
1740,  952,   32,   31
1741, 1039, 1037,  950
1742, 1038,  951, 1007
1743,  951,  922,  112
1744,  953,   31,   30
1745, 1040, 1039,  952
1746,  954,   30,   29
1747, 1034, 1006,  923
1748,  955,   29,   28
1749, 1042,  955, 1019
1750,  956,   28,   27
1751, 1041, 1040,  953
1752,  957,   27,   26
1753, 1043, 1019,  956
1754,  958,   26,   25
1755, 1321, 1272, 1273
1756,  959,   25,   24
1757, 1044, 1043,  957
1758,  960,   24,   23
1759, 1045, 1044,  958
1760,  961,   23,   22
1761, 1046, 1045,  959
1762,  962,   22,   21
1763, 1047,  961, 1008
1764,  963,   21,   20
1765, 1106, 1014, 1102
1766,  964,   20,   19
1767, 1221, 1153, 1217
1768,  965,  964,   19
1769, 1049, 1014,  964
1770,  965,   19,   18
1771, 1050,  915, 1010
1772,  967,   16,   15
1773, 1052, 1051,  967
1774,  968,   15,   14
1775, 1069,  989, 1065
1776,  969,  968,   14
1777,  988,  905,  986
1778,  969,   14,   13
1779,  984,   13,  196
1780, 1133, 1061,  912
1781,  970,  125,  124
1782, 1133,  971, 1061
1783,  971,  126,  125
1784,  972,  209,  210
1785,  978,  210,  211
1786,  973,   11,  208
1787,  980,  208,  209
1788,  974,  207,   10
1789,  982,  974,   10
1790, 1134, 1065, 1053
1791, 1060,  908,  975
1792,  989,  986,  906
1793,  977,  206,  207
1794, 1103, 1102, 1049
1795, 1260, 1200, 1138
1796,  979,  978,  211
1797,  990,  909,  985
1798,  979,  211,  212
1799,  983,  212,  213
1800, 1258, 1204, 1198
1801, 1059,  980, 1057
1802,  981,  902,   11
1803,  981,   11,  973
1804,  982,   10,  902
1805, 1111, 1045, 1046
1806,  983,  214,  903
1807, 1055,  903,  990
1808,  984,  197,  904
1809, 1009,  904,  988
1810,  987,  910,  911
1811, 1143, 1066,  987
1812, 1052,  968, 1009
1813,  986,  905,  906
1814, 1061,  987,  911
1815, 1012,  971,  970
1816, 1051, 1010,  966
1817,  988,  904,  905
1818, 1060,  907,  908
1819, 1065, 1060, 1053
1820, 1203,  990, 1068
1821,  990,  903,  909
1822,  991,  928,  194
1823,  991,  194,  195
1824,  992,  938,  191
1825, 1021,  992,  192
1826,  993,  919,  920
1827, 1017,  920,  913
1828,  994,  916,  917
1829, 1015,  917,  918
1830, 1064, 1063,  902
1831,  996,  995,  114
1832,  996,  114,  113
1833, 1071,  922, 1038
1834,  997,  946,  944
1835, 1005,  944,  942
1836, 1363, 1298, 1288
1837, 1229, 1161, 1173
1838, 1013,  914,  943
1839, 1159, 1029, 1075
1840, 1000,  926,  929
1841, 1023,  929,  930
1842, 1002,  186,  187
1843, 1025,  932, 1001
1844, 1024,  187,  188
1845, 1024, 1002,  187
1846, 1003,  930,  931
1847, 1086, 1023, 1003
1848, 1004,  942,  924
1849, 1020, 1004,  924
1850, 1005,  997,  944
1851, 1005,  942, 1004
1852, 1006,  949,  923
1853, 1034,  923,  946
1854, 1042,  954,  955
1855, 1007,  951,  949
1856, 1008,  961,  962
1857, 1048,  962,  963
1858, 1009,  968,  969
1859, 1009,  969,  984
1860, 1010,  915,  966
1861, 1051,  966,  967
1862, 1126, 1012, 1011
1863, 1011,  970,  916
1864, 1143, 1061, 1012
1865, 1012,  970, 1011
1866, 1013,  999,  914
1867, 1033,  943,  945
1868, 1014,  963,  964
1869, 1049,  964,  965
1870, 1016, 1015,  918
1871, 1122, 1016, 1107
1872, 1016,  918,  919
1873, 1107, 1016,  993
1874, 1018,  913,  921
1875, 1108, 1017, 1105
1876, 1072,  921,  117
1877, 1267, 1206, 1266
1878, 1019,  955,  956
1879, 1043,  956,  957
1880, 1020,  924,  926
1881, 1167, 1080, 1090
1882, 1089, 1032, 1022
1883, 1076,  928, 1032
1884, 1031,  939,  927
1885, 1031,  927, 1030
1886, 1023, 1000,  929
1887, 1023,  930, 1003
1888, 1077,  936,  998
1889, 1077, 1024,  936
1890, 1025,  931,  932
1891, 1090, 1080, 1025
1892, 1091, 1090, 1001
1893, 1073,  185,  186
1894, 1027, 1001,  933
1895, 1062,  934,  935
1896, 1262, 1028, 1062
1897, 1074,  183,  184
1898, 1029,  998,  937
1899, 1075,  938,  992
1900, 1030,  927,  925
1901, 1092,  999, 1082
1902, 1083, 1031, 1030
1903, 1031, 1022,  939
1904, 1032,  928,  991
1905, 1032,  940, 1022
1906, 1035,  945,  947
1907, 1088, 1020, 1000
1908, 1095,  997, 1084
1909, 1113, 1034, 1095
1910, 1036,  947,  948
1911, 1175, 1171, 1096
1912, 1037,  948,  950
1913, 1097, 1096, 1035
1914, 1039,  950,  952
1915, 1099, 1098, 1037
1916, 1038,  922,  951
1917, 1118, 1007, 1117
1918, 1040,  952,  953
1919, 1164, 1081, 1163
1920, 1041,  953,  954
1921, 1179, 1084, 1164
1922, 1042, 1041,  954
1923, 1101, 1100, 1040
1924, 1124, 1043, 1119
1925, 1104, 1101, 1041
1926, 1044,  957,  958
1927, 1119, 1044, 1114
1928, 1045,  958,  959
1929, 1154, 1152, 1111
1930, 1046,  959,  960
1931, 1110, 1047, 1008
1932, 1047,  960,  961
1933, 1047, 1046,  960
1934, 1112, 1048, 1106
1935, 1110, 1109, 1047
1936, 1048, 1008,  962
1937, 1048,  963, 1014
1938, 1050, 1049,  965
1939, 1186, 1103, 1145
1940, 1050,  965,  915
1941, 1127, 1010, 1123
1942, 1067,  988,  986
1943, 1128, 1125, 1067
1944, 1052,  967,  968
1945, 1125,  988, 1067
1946, 1053,  975,  204
1947, 1053,  205,  976
1948, 1054,  976,  977
1949, 1058,  977,  974
1950, 1055,  978,  979
1951, 1055,  979,  983
1952, 1056,  972,  978
1953, 1141, 1135, 1068
1954, 1137, 1057, 1135
1955, 1057,  980,  972
1956, 1132,  974,  982
1957, 1256, 1136, 1201
1958, 1129, 1015, 1122
1959, 1059,  973,  980
1960, 1060,  989,  907
1961, 1060,  975, 1053
1962, 1061,  911,  912
1963, 1061,  971, 1012
1964, 1062, 1027,  934
1965, 1262, 1062,  935
1966, 1064,  902,  981
1967, 1208, 1199, 1064
1968, 1216, 1213, 1185
1969, 1358, 1319, 1271
1970, 1315, 1200, 1128
1971, 1065,  989, 1060
1972, 1066,  985,  987
1973, 1204, 1120, 1198
1974, 1128, 1052, 1125
1975, 1069, 1067,  986
1976, 1203, 1068, 1135
1977, 1068,  990,  985
1978, 1069,  986,  989
1979, 1138, 1065, 1134
1980, 1070, 1018,  921
1981, 1195, 1071, 1147
1982, 1071,  996,  922
1983, 1147, 1038, 1118
1984, 1078, 1072,  116
1985, 1188, 1072, 1078
1986, 1165, 1091, 1142
1987, 1182, 1002, 1115
1988, 1074, 1028,  183
1989, 1158, 1026, 1073
1990, 1116,  992, 1021
1991, 1284, 1243, 1181
1992, 1076, 1021,  928
1993, 1093, 1031, 1083
1994, 1420, 1398, 1329
1995, 1231, 1165, 1207
1996, 1078,  116,  115
1997, 1149,  995, 1130
1998, 1088, 1000, 1087
1999, 1079, 1013, 1033
2000, 1086, 1003, 1080
2001, 1080, 1003, 1025
2002, 1081, 1005, 1004
2003, 1094, 1004, 1020
2004, 1174, 1168, 1093
2005, 1082,  999, 1013
2006, 1168, 1089, 1093
2007, 1092, 1083, 1030
2008, 1100, 1099, 1039
2009, 1084,  997, 1005
2010, 1160,  998, 1085
2011, 1085,  998, 1029
2012, 1169, 1086, 1162
2013, 1087, 1023, 1086
2014, 1170, 1087, 1169
2015, 1087, 1000, 1023
2016, 1171, 1166, 1079
2017, 1295, 1293, 1240
2018, 1089, 1076, 1032
2019, 1093, 1089, 1022
2020, 1091, 1001, 1027
2021, 1300, 1245, 1228
2022, 1131, 1027, 1062
2023, 1157, 1142, 1131
2024, 1092, 1030,  999
2025, 1173, 1092, 1082
2026, 1093, 1022, 1031
2027, 1161, 1083, 1092
2028, 1094, 1081, 1004
2029, 1094, 1020, 1088
2030, 1189, 1101, 1187
2031, 1095, 1034,  997
2032, 1096, 1079, 1033
2033, 1097, 1035, 1036
2034, 1098, 1036, 1037
2035, 1176, 1175, 1097
2036, 1099, 1037, 1039
2037, 1177, 1176, 1098
2038, 1100, 1039, 1040
2039, 1242, 1241, 1176
2040, 1101, 1040, 1041
2041, 1305, 1303, 1248
2042, 1104, 1041, 1042
2043, 1253, 1192, 1250
2044, 1217, 1155, 1215
2045, 1102, 1014, 1049
2046, 1127, 1050, 1010
2047, 1215, 1186, 1212
2048, 1121, 1042, 1019
2049, 1192, 1113, 1095
2050, 1105, 1017, 1018
2051, 1144, 1018, 1070
2052, 1155, 1153, 1106
2053, 1106, 1048, 1014
2054, 1108, 1107,  993
2055, 1213, 1211, 1148
2056, 1108,  993, 1017
2057, 1144, 1105, 1018
2058, 1111, 1046, 1109
2059, 1109, 1046, 1047
2060, 1112, 1110, 1008
2061, 1190, 1112, 1153
2062, 1278, 1222, 1224
2063, 1114, 1045, 1111
2064, 1112, 1008, 1048
2065, 1278, 1277, 1222
2066, 1113, 1006, 1034
2067, 1192, 1095, 1179
2068, 1218, 1118, 1184
2069, 1114, 1044, 1045
2070, 1115, 1002, 1024
2071, 1180, 1077, 1160
2072, 1116, 1075,  992
2073, 1116, 1021, 1076
2074, 1184, 1118, 1117
2075, 1117, 1007, 1006
2076, 1124, 1019, 1043
2077, 1118, 1038, 1007
2078, 1119, 1043, 1044
2079, 1151, 1150, 1119
2080, 1120, 1011,  994
2081, 1129,  994, 1015
2082, 1196, 1121, 1194
2083, 1121, 1104, 1042
2084, 1258, 1202, 1137
2085, 1122, 1015, 1016
2086, 1123, 1010, 1051
2087, 1128, 1051, 1052
2088, 1150, 1124, 1119
2089, 1194, 1124, 1150
2090, 1125, 1052, 1009
2091, 1125, 1009,  988
2092, 1143, 1126, 1066
2093, 1126, 1011, 1120
2094, 1197, 1145, 1127
2095, 1127, 1103, 1050
2096, 1315, 1138, 1200
2097, 1128, 1123, 1051
2098, 1146, 1129, 1122
2099, 1129, 1120,  994
2100, 1149, 1078,  995
2101, 1130,  995,  996
2102, 1157, 1062, 1028
2103, 1227, 1207, 1142
2104, 1132, 1058,  974
2105, 1264,  982, 1139
2106, 1133,  912,  127
2107, 1133,  126,  971
2108, 1134,  976, 1054
2109, 1138, 1134, 1054
2110, 1135, 1057, 1056
2111, 1141, 1068, 1066
2112, 1136, 1054, 1058
2113, 1201, 1136, 1058
2114, 1204, 1137, 1135
2115, 1137, 1059, 1057
2116, 1138, 1069, 1065
2117, 1138, 1054, 1136
2118, 1139,  982, 1063
2119, 1199, 1063, 1064
2120, 1140, 1064,  981
2121, 1261,  973, 1059
2122, 1141, 1066, 1126
2123, 1141, 1126, 1120
2124, 1142, 1091, 1131
2125, 1183, 1142, 1157
2126, 1143,  987, 1061
2127, 1143, 1012, 1126
2128, 1259, 1188, 1149
2129, 1313, 1214, 1275
2130, 1256, 1201, 1212
2131, 1145, 1103, 1127
2132, 1148, 1122, 1107
2133, 1258, 1137, 1204
2134, 1152, 1151, 1114
2135, 1147, 1071, 1038
2136, 1185, 1107, 1108
2137, 1266, 1211, 1213
2138, 1188, 1078, 1149
2139, 1214, 1130, 1195
2140, 1151, 1119, 1114
2141, 1326, 1251, 1309
2142, 1152, 1114, 1111
2143, 1280, 1219, 1277
2144, 1154, 1111, 1109
2145, 1357, 1324, 1327
2146, 1153, 1112, 1106
2147, 1155, 1106, 1102
2148, 1191, 1109, 1110
2149, 1205, 1063, 1199
2150, 1186, 1155, 1102
2151, 1263, 1215, 1212
2152, 1156, 1108, 1105
2153, 1209, 1105, 1144
2154, 1157, 1028, 1074
2155, 1183, 1074, 1026
2156, 1182, 1073, 1002
2157, 1268, 1227, 1245
2158, 1159, 1085, 1029
2159, 1181, 1075, 1116
2160, 1285, 1180, 1244
2161, 1160, 1077,  998
2162, 1166, 1082, 1079
2163, 1243, 1159, 1181
2164, 1293, 1235, 1240
2165, 1162, 1086, 1080
2166, 1163, 1081, 1094
2167, 1172, 1094, 1088
2168, 1178, 1177, 1099
2169, 1164, 1084, 1081
2170, 1165, 1090, 1091
2171, 1227, 1142, 1183
2172, 1298, 1283, 1225
2173, 1171, 1079, 1096
2174, 1167, 1162, 1080
2175, 1167, 1090, 1165
2176, 1168, 1116, 1076
2177, 1174, 1093, 1083
2178, 1169, 1087, 1086
2179, 1234, 1162, 1167
2180, 1172, 1088, 1170
2181, 1170, 1088, 1087
2182, 1175, 1096, 1097
2183, 1237, 1233, 1163
2184, 1172, 1163, 1094
2185, 1238, 1170, 1232
2186, 1173, 1161, 1092
2187, 1173, 1082, 1166
2188, 1174, 1083, 1161
2189, 1239, 1174, 1161
2190, 1176, 1097, 1098
2191, 1240, 1235, 1171
2192, 1177, 1098, 1099
2193, 1241, 1240, 1175
2194, 1178, 1099, 1100
2195, 1246, 1242, 1177
2196, 1189, 1100, 1101
2197, 1303, 1301, 1246
2198, 1179, 1095, 1084
2199, 1247, 1164, 1233
2200, 1180, 1115, 1077
2201, 1226, 1160, 1085
2202, 1181, 1159, 1075
2203, 1181, 1116, 1168
2204, 1182, 1158, 1073
2205, 1228, 1115, 1180
2206, 1183, 1157, 1074
2207, 1183, 1026, 1158
2208, 1193, 1117, 1113
2209, 1194, 1121, 1124
2210, 1185, 1148, 1107
2211, 1185, 1108, 1156
2212, 1186, 1102, 1103
2213, 1256, 1212, 1145
2214, 1187, 1101, 1104
2215, 1196, 1104, 1121
2216, 1210, 1070, 1188
2217, 1188, 1070, 1072
2218, 1249, 1248, 1189
2219, 1189, 1178, 1100
2220, 1190, 1110, 1112
2221, 1316, 1276, 1217
2222, 1191, 1154, 1109
2223, 1191, 1110, 1190
2224, 1193, 1113, 1192
2225, 1250, 1179, 1247
2226, 1307, 1305, 1249
2227, 1193, 1184, 1117
2228, 1254, 1150, 1220
2229, 1257, 1194, 1254
2230, 1409, 1406, 1381
2231, 1195, 1130, 1071
2232, 1254, 1194, 1150
2233, 1196, 1187, 1104
2234, 1197, 1127, 1123
2235, 1200, 1197, 1123
2236, 1198, 1120, 1129
2237, 1198, 1129, 1146
2238, 1222, 1219, 1152
2239, 1208, 1064, 1140
2240, 1200, 1123, 1128
2241, 1315, 1128, 1067
2242, 1201, 1058, 1132
2243, 1263, 1201, 1132
2244, 1202, 1059, 1137
2245, 1211, 1146, 1148
2246, 1203, 1056, 1055
2247, 1203, 1055,  990
2248, 1204, 1135, 1141
2249, 1204, 1141, 1120
2250, 1223, 1190, 1221
2251, 1205, 1139, 1063
2252, 1206, 1140,  981
2253, 1206,  981,  973
2254, 1268, 1207, 1227
2255, 1207, 1165, 1142
2256, 1270, 1140, 1267
2257, 1354, 1313, 1346
2258, 1209, 1156, 1105
2259, 1274, 1144, 1210
2260, 1210, 1144, 1070
2261, 1391, 1319, 1358
2262, 1258, 1211, 1202
2263, 1213, 1148, 1185
2264, 1265, 1263, 1264
2265, 1212, 1186, 1145
2266, 1216, 1185, 1156
2267, 1266, 1261, 1202
2268, 1214, 1149, 1130
2269, 1275, 1195, 1255
2270, 1316, 1263, 1265
2271, 1215, 1155, 1186
2272, 1271, 1156, 1209
2273, 1267, 1266, 1213
2274, 1269, 1265, 1139
2275, 1217, 1153, 1155
2276, 1220, 1151, 1219
2277, 1218, 1147, 1118
2278, 1219, 1151, 1152
2279, 1222, 1152, 1154
2280, 1279, 1184, 1251
2281, 1220, 1150, 1151
2282, 1282, 1223, 1281
2283, 1221, 1190, 1153
2284, 1224, 1154, 1191
2285, 1272, 1205, 1199
2286, 1223, 1191, 1190
2287, 1281, 1221, 1276
2288, 1224, 1222, 1154
2289, 1224, 1191, 1223
2290, 1226, 1085, 1225
2291, 1225, 1085, 1159
2292, 1291, 1234, 1231
2293, 1244, 1160, 1226
2294, 1227, 1183, 1158
2295, 1245, 1158, 1182
2296, 1228, 1182, 1115
2297, 1364, 1299, 1329
2298, 1230, 1173, 1166
2299, 1230, 1229, 1173
2300, 1235, 1166, 1171
2301, 1290, 1288, 1229
2302, 1234, 1167, 1231
2303, 1231, 1167, 1165
2304, 1232, 1170, 1169
2305, 1236, 1169, 1162
2306, 1233, 1164, 1163
2307, 1237, 1163, 1172
2308, 1291, 1289, 1234
2309, 1372, 1333, 1339
2310, 1235, 1230, 1166
2311, 1240, 1171, 1175
2312, 1236, 1232, 1169
2313, 1236, 1162, 1234
2314, 1238, 1237, 1172
2315, 1293, 1287, 1235
2316, 1238, 1172, 1170
2317, 1292, 1232, 1236
2318, 1298, 1239, 1288
2319, 1239, 1161, 1229
2320, 1241, 1175, 1176
2321, 1340, 1297, 1301
2322, 1242, 1176, 1177
2323, 1296, 1237, 1286
2324, 1246, 1177, 1178
2325, 1337, 1294, 1336
2326, 1243, 1225, 1159
2327, 1284, 1181, 1168
2328, 1244, 1180, 1160
2329, 1299, 1226, 1283
2330, 1245, 1227, 1158
2331, 1245, 1182, 1228
2332, 1248, 1178, 1189
2333, 1342, 1340, 1301
2334, 1247, 1179, 1164
2335, 1302, 1233, 1296
2336, 1248, 1246, 1178
2337, 1249, 1189, 1187
2338, 1252, 1187, 1196
2339, 1253, 1251, 1193
2340, 1250, 1192, 1179
2341, 1304, 1247, 1302
2342, 1251, 1184, 1193
2343, 1253, 1193, 1192
2344, 1252, 1249, 1187
2345, 1257, 1196, 1194
2346, 1308, 1250, 1304
2347, 1309, 1253, 1308
2348, 1306, 1220, 1280
2349, 1311, 1254, 1306
2350, 1255, 1195, 1147
2351, 1310, 1218, 1279
2352, 1256, 1145, 1197
2353, 1260, 1256, 1197
2354, 1311, 1257, 1254
2355, 1257, 1252, 1196
2356, 1258, 1198, 1146
2357, 1258, 1146, 1211
2358, 1259, 1210, 1188
2359, 1259, 1149, 1214
2360, 1260, 1138, 1136
2361, 1260, 1136, 1256
2362, 1261, 1059, 1202
2363, 1266, 1202, 1211
2364, 1262,  935,  181
2365, 1262,  182, 1028
2366, 1263, 1212, 1201
2367, 1264, 1263, 1132
2368, 1264, 1132,  982
2369, 1265, 1264, 1139
2370, 1269, 1139, 1205
2371, 1316, 1265, 1276
2372, 1267, 1213, 1216
2373, 1266, 1206, 1261
2374, 1319, 1267, 1216
2375, 1267, 1140, 1206
2376, 1268, 1231, 1207
2377, 1339, 1333, 1291
2378, 1317, 1205, 1272
2379, 1281, 1276, 1269
2380, 1320, 1209, 1274
2381, 1270, 1208, 1140
2382, 1271, 1216, 1156
2383, 1274, 1209, 1144
2384, 1273, 1199, 1208
2385, 1273, 1272, 1199
2386, 1318, 1208, 1270
2387, 1323, 1255, 1310
2388, 1314, 1210, 1259
2389, 1392, 1359, 1357
2390, 1275, 1214, 1195
2391, 1361, 1310, 1350
2392, 1276, 1221, 1217
2393, 1276, 1265, 1269
2394, 1277, 1219, 1222
2395, 1409, 1361, 1396
2396, 1327, 1281, 1317
2397, 1359, 1324, 1357
2398, 1348, 1280, 1325
2399, 1279, 1218, 1184
2400, 1280, 1220, 1219
2401, 1325, 1277, 1322
2402, 1281, 1223, 1221
2403, 1317, 1281, 1269
2404, 1282, 1278, 1224
2405, 1282, 1224, 1223
2406, 1283, 1226, 1225
2407, 1290, 1230, 1287
2408, 1284, 1168, 1174
2409, 1284, 1174, 1239
2410, 1285, 1228, 1180
2411, 1328, 1244, 1299
2412, 1286, 1237, 1238
2413, 1294, 1238, 1232
2414, 1292, 1236, 1289
2415, 1287, 1230, 1235
2416, 1288, 1239, 1229
2417, 1290, 1229, 1230
2418, 1289, 1236, 1234
2419, 1339, 1291, 1268
2420, 1334, 1290, 1287
2421, 1363, 1329, 1283
2422, 1291, 1231, 1268
2423, 1339, 1268, 1300
2424, 1335, 1334, 1287
2425, 1336, 1292, 1330
2426, 1295, 1240, 1241
2427, 1366, 1337, 1336
2428, 1294, 1286, 1238
2429, 1294, 1232, 1292
2430, 1297, 1241, 1242
2431, 1338, 1295, 1331
2432, 1301, 1297, 1242
2433, 1296, 1233, 1237
2434, 1297, 1295, 1241
2435, 1301, 1242, 1246
2436, 1298, 1225, 1243
2437, 1298, 1243, 1239
2438, 1299, 1244, 1226
2439, 1363, 1283, 1298
2440, 1300, 1268, 1245
2441, 1300, 1228, 1285
2442, 1303, 1246, 1248
2443, 1340, 1331, 1297
2444, 1302, 1247, 1233
2445, 1341, 1296, 1332
2446, 1305, 1248, 1249
2447, 1344, 1342, 1303
2448, 1304, 1250, 1247
2449, 1343, 1302, 1341
2450, 1307, 1249, 1252
2451, 1347, 1344, 1305
2452, 1353, 1311, 1352
2453, 1306, 1254, 1220
2454, 1312, 1252, 1257
2455, 1349, 1308, 1345
2456, 1308, 1253, 1250
2457, 1345, 1304, 1343
2458, 1352, 1311, 1306
2459, 1309, 1251, 1253
2460, 1310, 1255, 1218
2461, 1350, 1279, 1326
2462, 1312, 1257, 1311
2463, 1352, 1306, 1348
2464, 1351, 1347, 1307
2465, 1312, 1307, 1252
2466, 1417, 1415, 1408
2467, 1313, 1259, 1214
2468, 1314, 1274, 1210
2469, 1314, 1259, 1313
2470, 1315, 1067, 1069
2471, 1315, 1069, 1138
2472, 1316, 1217, 1215
2473, 1316, 1215, 1263
2474, 1317, 1269, 1205
2475, 1357, 1272, 1321
2476, 1318, 1273, 1208
2477, 1390, 1320, 1355
2478, 1319, 1270, 1267
2479, 1319, 1216, 1271
2480, 1320, 1271, 1209
2481, 1355, 1274, 1314
2482, 1324, 1322, 1278
2483, 1356, 1273, 1318
2484, 1346, 1275, 1323
2485, 1322, 1277, 1278
2486, 1323, 1275, 1255
2487, 1379, 1325, 1360
2488, 1324, 1278, 1282
2489, 1327, 1324, 1282
2490, 1325, 1280, 1277
2491, 1360, 1322, 1359
2492, 1326, 1279, 1251
2493, 1362, 1309, 1349
2494, 1327, 1282, 1281
2495, 1357, 1327, 1317
2496, 1372, 1365, 1333
2497, 1328, 1285, 1244
2498, 1329, 1299, 1283
2499, 1338, 1335, 1293
2500, 1330, 1292, 1289
2501, 1333, 1330, 1289
2502, 1404, 1402, 1373
2503, 1331, 1295, 1297
2504, 1332, 1296, 1286
2505, 1337, 1286, 1294
2506, 1333, 1289, 1291
2507, 1372, 1364, 1365
2508, 1420, 1363, 1334
2509, 1335, 1287, 1293
2510, 1367, 1337, 1366
2511, 1401, 1399, 1369
2512, 1336, 1294, 1292
2513, 1369, 1330, 1365
2514, 1371, 1370, 1338
2515, 1337, 1332, 1286
2516, 1338, 1293, 1295
2517, 1400, 1366, 1399
2518, 1339, 1300, 1285
2519, 1339, 1285, 1328
2520, 1342, 1301, 1303
2521, 1375, 1373, 1340
2522, 1341, 1302, 1296
2523, 1374, 1332, 1367
2524, 1344, 1303, 1305
2525, 1377, 1375, 1342
2526, 1343, 1304, 1302
2527, 1376, 1341, 1374
2528, 1347, 1305, 1307
2529, 1380, 1377, 1344
2530, 1345, 1308, 1304
2531, 1378, 1343, 1376
2532, 1389, 1355, 1354
2533, 1346, 1313, 1275
2534, 1351, 1307, 1312
2535, 1384, 1380, 1347
2536, 1422, 1421, 1409
2537, 1348, 1306, 1280
2538, 1349, 1309, 1308
2539, 1382, 1345, 1378
2540, 1350, 1310, 1279
2541, 1413, 1412, 1411
2542, 1353, 1312, 1311
2543, 1387, 1353, 1386
2544, 1388, 1348, 1379
2545, 1388, 1386, 1352
2546, 1385, 1326, 1362
2547, 1353, 1351, 1312
2548, 1383, 1346, 1381
2549, 1354, 1314, 1313
2550, 1355, 1320, 1274
2551, 1355, 1314, 1354
2552, 1356, 1321, 1273
2553, 1394, 1358, 1390
2554, 1357, 1317, 1272
2555, 1392, 1357, 1321
2556, 1394, 1391, 1358
2557, 1358, 1271, 1320
2558, 1395, 1392, 1393
2559, 1359, 1322, 1324
2560, 1381, 1323, 1361
2561, 1360, 1325, 1322
2562, 1361, 1323, 1310
2563, 1396, 1350, 1385
2564, 1362, 1326, 1309
2565, 1403, 1349, 1382
2566, 1363, 1288, 1290
2567, 1363, 1290, 1334
2568, 1364, 1328, 1299
2569, 1420, 1368, 1398
2570, 1401, 1368, 1399
2571, 1365, 1330, 1333
2572, 1369, 1366, 1336
2573, 1370, 1368, 1335
2574, 1373, 1371, 1331
2575, 1367, 1332, 1337
2576, 1368, 1334, 1335
2577, 1370, 1335, 1338
2578, 1369, 1336, 1330
2579, 1401, 1365, 1364
2580, 1371, 1338, 1331
2581, 1400, 1399, 1370
2582, 1373, 1331, 1340
2583, 1402, 1371, 1373
2584, 1372, 1339, 1328
2585, 1372, 1328, 1364
2586, 1375, 1340, 1342
2587, 1402, 1400, 1371
2588, 1374, 1341, 1332
2589, 1402, 1374, 1367
2590, 1377, 1342, 1344
2591, 1405, 1404, 1375
2592, 1376, 1343, 1341
2593, 1404, 1376, 1374
2594, 1380, 1344, 1347
2595, 1407, 1405, 1377
2596, 1378, 1345, 1343
2597, 1405, 1378, 1376
2598, 1379, 1348, 1325
2599, 1397, 1360, 1395
2600, 1384, 1347, 1351
2601, 1410, 1407, 1380
2602, 1395, 1359, 1392
2603, 1381, 1346, 1323
2604, 1382, 1349, 1345
2605, 1407, 1382, 1378
2606, 1424, 1418, 1423
2607, 1383, 1354, 1346
2608, 1387, 1351, 1353
2609, 1413, 1387, 1412
2610, 1419, 1412, 1416
2611, 1385, 1350, 1326
2612, 1386, 1353, 1352
2613, 1388, 1352, 1348
2614, 1411, 1362, 1403
2615, 1387, 1384, 1351
2616, 1425, 1414, 1397
2617, 1416, 1388, 1414
2618, 1415, 1390, 1389
2619, 1389, 1354, 1383
2620, 1390, 1358, 1320
2621, 1390, 1355, 1389
2622, 1391, 1318, 1270
2623, 1391, 1270, 1319
2624, 1393, 1321, 1356
2625, 1393, 1392, 1321
2626, 1417, 1394, 1415
2627, 1408, 1389, 1383
2628, 1394, 1356, 1318
2629, 1394, 1318, 1391
2630, 1421, 1406, 1409
2631, 1395, 1360, 1359
2632, 1396, 1361, 1350
2633, 1419, 1385, 1411
2634, 1397, 1379, 1360
2635, 1423, 1418, 1395
2636, 1401, 1364, 1398
2637, 1398, 1364, 1329
2638, 1399, 1368, 1370
2639, 1399, 1366, 1369
2640, 1400, 1370, 1371
2641, 1400, 1367, 1366
2642, 1401, 1369, 1365
2643, 1401, 1398, 1368
2644, 1404, 1373, 1375
2645, 1402, 1367, 1400
2646, 1403, 1362, 1349
2647, 1410, 1403, 1382
2648, 1405, 1375, 1377
2649, 1404, 1374, 1402
2650, 1407, 1377, 1380
2651, 1405, 1376, 1404
2652, 1406, 1383, 1381
2653, 1409, 1381, 1361
2654, 1410, 1380, 1384
2655, 1407, 1378, 1405
2656, 1417, 1356, 1394
2657, 1408, 1383, 1406
2658, 1422, 1396, 1419
2659, 1424, 1421, 1418
2660, 1413, 1384, 1387
2661, 1410, 1382, 1407
2662, 1413, 1411, 1403
2663, 1411, 1385, 1362
2664, 1412, 1387, 1386
2665, 1416, 1386, 1388
2666, 1413, 1403, 1410
2667, 1413, 1410, 1384
2668, 1414, 1388, 1379
2669, 1414, 1379, 1397
2670, 1415, 1394, 1390
2671, 1415, 1389, 1408
2672, 1422, 1414, 1421
2673, 1416, 1412, 1386
2674, 1424, 1423, 1408
2675, 1417, 1393, 1356
2676, 1418, 1397, 1395
2677, 1423, 1395, 1393
2678, 1419, 1396, 1385
2679, 1419, 1411, 1412
2680, 1420, 1329, 1363
2681, 1420, 1334, 1368
2682, 1422, 1409, 1396
2683, 1425, 1421, 1414
2684, 1422, 1419, 1416
2685, 1422, 1416, 1414
2686, 1423, 1393, 1417
2687, 1423, 1417, 1408
2688, 1424, 1408, 1406
2689, 1424, 1406, 1421
2690, 1425, 1397, 1418
2691, 1425, 1418, 1421
*Nset, nset=_G3, internal, generate
    1,  1425,     1
*Elset, elset=_G3, internal, generate
    1,  2691,     1
*Nset, nset=Support_Left
 89,
*Nset, nset=Support_Right
 135,
*Nset, nset=Load_Nodes, generate
 187,  189,    1
*Nset, nset=CMOD1
 9,
*Nset, nset=CMOD2
 12,
** Section: BeamSec
*Solid Section, elset=_G3, material=Concrete
50.,
*End Part
**  
**
** ASSEMBLY
**
*Assembly, name=Assembly
**  
*Instance, name=BeamInst, part=Beam2D
*End Instance
**  
*Nset, nset=CMOD1, instance=BeamInst
 9,
*Nset, nset=CMOD2, instance=BeamInst
 12,
*Nset, nset=Load_Nodes, instance=BeamInst, generate
 187,  189,    1
*Nset, nset=Support_Left, instance=BeamInst
 89,
*Nset, nset=Support_Right, instance=BeamInst
 135,
*End Assembly
** 
** MATERIALS
** 
*Material, name=Concrete
*Depvar
      2,
*User Material, constants=5
37000.,  0.2,  3.5, 0.09,  10.
** ----------------------------------------------------------------
** 
** STEP: Loading
** 
*Step, name=Loading, nlgeom=NO, inc=4000
*Static
0.005, 1., 1e-10, 0.005
** 
** BOUNDARY CONDITIONS
** 
** Name: BC_Load Type: Displacement/Rotation
*Boundary
Load_Nodes, 2, 2, -0.2
** Name: BC_SupL Type: Displacement/Rotation
*Boundary
Support_Left, 1, 1
Support_Left, 2, 2
** Name: BC_SupR Type: Displacement/Rotation
*Boundary
Support_Right, 2, 2
** 
** OUTPUT REQUESTS
** 
*Restart, write, frequency=0
** 
** FIELD OUTPUT: F-Output-1
** 
*Output, field, variable=PRESELECT
** 
** FIELD OUTPUT: F-Output
** 
*Output, field, frequency=10
*Node Output
RF, U
*Element Output, directions=YES
E, S, SDV
** 
** HISTORY OUTPUT: H-CMOD1
** 
*Output, history
*Node Output, nset=CMOD1
U1, 
** 
** HISTORY OUTPUT: H-CMOD2
** 
*Node Output, nset=CMOD2
U1, 
** 
** HISTORY OUTPUT: H-Load
** 
*Node Output, nset=Load_Nodes
RF2, U2
** 
** HISTORY OUTPUT: H-Output-1
** 
*Output, history, variable=PRESELECT
*End Step
